LAMMPS data file via write_data, version 2 Aug 2023, timestep = 1000000, units = lj

716 atoms
2 atom types

0 10.074 xlo xhi
0 10.074 ylo yhi
0 10.074 zlo zhi

Masses

1 1
2 1

PairIJ Coeffs # lj/cut

1 1 1 1 2.5
1 2 0.5 1 2.5
2 2 1 1 2.5

Atoms # atomic

546 2 1.2522454682005408 0.9289345703534777 2.8692074922195974 5 -5 -8
483 2 1.3537528837874206 3.6680317445389896 1.9119771544888016 -5 13 6
301 2 0.08238048475058622 0.1294656114038803 2.2439402086587017 -3 -6 -19
136 1 2.810257700922926 0.9403443903178607 0.8831808703918805 -2 5 -6
551 2 4.311250206759373 1.821238146266778 4.3498992955446525 6 -3 1
112 1 2.99885296353209 1.8156488924743401 0.17626427797524652 -3 4 3
597 2 1.8940910697319295 3.8669788163809646 3.05818879287424 4 1 7
333 2 0.7894505835892978 3.7038992110399076 0.6170745224073623 19 -14 8
652 2 2.7265234629825215 2.107898272631843 1.1430696120275594 6 -2 5
434 2 0.18631246180548222 2.7130684281134867 3.6880550761841207 -7 -14 -7
244 2 1.1514691778920751 2.71181618636522 0.29930718223252706 2 -15 5
1 1 1.3249356370321552 3.1727162594859086 4.296104896097426 -15 6 -8
247 2 1.3207393873327653 4.400006810099945 0.9934985013162625 -10 1 1
346 2 2.7589239794980887 3.1314198643334836 1.1705318033443406 -9 11 -8
450 2 2.1023659746570087 4.4739331638367315 2.089293475815862 9 10 -3
439 2 3.296808517706305 4.073825745421098 1.4365552915771382 13 8 10
608 2 1.1099716106741075 1.8126379077429533 0.8752603516422035 -6 6 7
651 2 4.024918344258452 1.6184325499220833 0.1698526940111254 -7 -20 18
703 2 0.7314640854871317 0.4699285502877506 0.47718490029281985 -5 7 -7
502 2 4.304349482700512 3.6238784874655248 1.3215876852069193 -1 15 -7
87 1 1.941424116652548 2.321160188446717 3.735896734758856 3 5 -8
393 2 1.1964150661132096 4.659247767143589 3.6078666093538048 -4 3 3
317 2 1.5024104231321775 4.938108933402196 4.872986226555635 -10 11 4
384 2 3.35088695261256 4.731283354540795 3.816910587820403 10 6 -2
202 1 2.874898905481736 2.4199044112600805 4.078622734638491 5 8 11
161 1 3.2171246214548326 3.726856832372574 0.3913094670277112 -12 -2 7
145 1 1.857607417228122 3.641442136876323 1.151327312978625 7 19 3
438 2 4.111633419370008 4.708545212301981 1.5058048594229052 5 0 -8
218 2 0.3157845056691261 2.8425916202325316 4.813396925994003 4 -1 -9
286 2 0.5889068109589592 3.8205978959567815 3.7011017138608544 2 7 2
368 2 1.0655541065321903 2.0204470134431864 3.094602942162123 -2 1 -9
281 2 4.759895005211254 1.4119796412364114 0.7334925099299155 -2 2 6
583 2 1.746233492272033 2.6714804988238443 1.1326672427022901 -8 -9 -7
229 2 4.834317780971259 2.4068944817616647 1.780127838432539 8 -12 -1
347 2 3.8964547251062016 0.2479974313316276 1.2219919201691316 0 9 -12
427 2 4.404507692822613 4.70515781436144 0.36319666991486893 -13 4 1
600 2 1.0240875247050047 1.0100439795939502 1.4222898176490846 -1 -5 -4
96 1 1.8538367233096409 0.5408783930428016 0.7047112737217969 5 -13 11
325 2 1.2290752209950289 1.3609246751195694 4.842603907088297 -14 9 -6
194 1 2.208614876537356 0.628292951821072 2.4248650998768344 -17 -9 8
36 1 2.9462162741012854 1.4399352019599143 1.9288030558352403 8 11 6
155 1 2.2645015656817877 1.3884047924418348 4.277453969842726 4 -10 -13
159 1 0.3244850294239188 2.7381826578403037 2.5504870874803394 3 -12 -5
645 2 4.115617427422924 1.3506328234532545 1.7767637495516229 4 5 15
209 1 3.1550428795088554 2.0640297637768303 2.7976769944682562 -4 -2 6
303 2 1.0873636609675483 2.3397358668475787 2.1750414470941797 -9 2 14
114 1 1.8413901626820979 1.4859003400924906 2.115126137204204 -3 4 -8
193 1 0.43030877497339576 2.5740362377223596 1.289094205973431 10 -1 -6
146 1 2.358215971426055 1.4128752814573502 3.1078102549411284 1 4 -1
99 1 3.241102220791186 3.4796054815864306 2.611404224511539 -13 1 -4
307 2 3.24300728197351 0.055927169918577616 2.7737049882197367 -8 -7 13
336 2 3.6207241772543197 1.6349920511854148 3.668739455824526 -7 -1 -9
156 1 4.070520126239243 2.478696071841016 2.40278337366733 5 7 10
95 1 3.6949381997633473 2.3833781611922107 1.2633913936379695 -8 12 -4
478 2 3.52333530326689 0.414518909512629 0.3193046412805298 1 -12 0
535 2 2.550803291016143 2.8423165396734706 3.117606826118372 -5 -6 6
580 2 1.0033291565443618 4.721475036329138 2.3287614770292633 -7 -16 -1
451 2 2.143179956397743 2.9890448713556337 2.045493730749686 -10 16 1
119 1 4.502548734930975 3.623851265933587 2.5134499127165575 5 -5 -1
230 2 3.077988851172569 4.49622081031947 2.696026440860718 -9 -10 -1
533 2 4.209556992437562 2.599211394652677 0.41128029370882474 -2 13 9
233 2 3.769924992923005 2.879117454105686 4.452599153030479 -19 -6 -7
694 2 2.048620046128517 1.5185236892367362 0.18875696756602825 4 11 -17
293 2 4.436377229693811 4.494214056937392 3.0004587563486527 7 -2 -3
264 2 3.395151016606033 4.834560591542177 0.8641349509801948 0 3 9
164 1 3.646543967848837 3.591961618300246 3.7125727763816236 5 17 8
382 2 0.5381707379563874 2.039261131310107 4.319659625126491 -6 -1 7
51 1 0.049642824471172006 4.9111829686867345 2.122741872725792 3 3 -1
545 2 0.6715828372621562 4.0803765179072204 4.759321396051427 -9 9 -2
321 2 3.2275607460156537 0.8352049880852891 4.8242726846698325 -4 3 1
475 2 2.7786375653043396 0.6855550957486348 3.7495557787697447 0 4 13
241 2 1.7060467766924732 0.581182412360005 3.797605675865226 -6 5 11
183 1 0.584838045603964 0.9253869131621401 4.443421529232761 7 21 -6
255 2 4.088310151931034 0.34031608395055757 3.568679479703703 4 7 -9
417 2 0.18870664924823563 4.9560297309763826 3.6425793604052763 3 -1 -8
683 2 4.659331832891422 1.1264982095249318 3.0026736568931653 2 -17 12
280 2 0.5572656287572951 0.25392303129279775 3.157985068011108 4 -4 -9
124 1 2.07518745307516 3.901589414042455 5.001833718082563 11 -6 2
400 2 2.25373900105776 4.078570256297732 0.09726884019654566 5 -8 -10
326 2 2.702024134342373 4.96877929440558 0.016297540112031432 9 -10 -5
695 2 4.962214561779918 2.55895016145764 4.853665072965377 0 -1 -7
334 2 4.961907368976256 4.2841621674715595 1.7533588978424304 -8 -14 2
575 2 0.2293305274858803 1.734862098251749 0.08471972204719624 -5 -9 8
436 2 0.7472672207545935 1.3680036863322456 5.806313246432479 6 -6 -4
582 2 0.9062023434741017 4.272103553235978 9.853331024399063 -6 -2 2
589 2 0.4798195253732347 2.7756555918037566 6.393621082390035 11 8 -3
291 2 1.6277276317408815 2.583708860255437 7.567118449093424 8 -9 7
242 2 2.3494205124040657 2.2712257375732694 9.617849177338568 -6 -2 0
470 2 0.9852692547915133 2.1258045318296785 8.551267913269562 -2 4 0
237 2 2.714443456664151 1.1610818821082192 6.445908935792324 -7 5 -6
69 1 3.7091378831409902 4.0302033477280075 5.392110991996376 5 -1 -3
30 1 3.9162278410835576 4.201990258768532 9.22933571033879 1 0 -2
204 1 1.9822928164126596 1.7639957748450412 6.896539648691092 -14 5 3
361 2 1.3128034785562912 4.145443552623732 8.887798945738208 7 1 -10
661 2 1.8981805372189264 1.8058295614804347 5.653058531788184 -1 -3 11
633 2 2.4739987791615565 4.068013904811625 7.793648032886774 -7 4 7
574 2 3.5975657097178444 2.20876258947095 6.364025221968022 11 -19 0
364 2 1.876491247020202 3.740102116006832 6.10542297569182 3 13 -9
45 1 1.5618083586498004 4.4488584356944445 6.822824582361284 -15 -5 -6
92 1 3.408507855633676 3.0024089838386767 5.676832668265184 -1 3 -8
338 2 4.722028086002401 2.2107450381627705 5.886166670639234 11 24 -4
587 2 0.3671805205661315 0.9055783401440228 9.640344592722274 4 9 4
691 2 4.503266420486522 2.894125670848129 6.785802559793476 6 2 10
148 1 0.8259691013319814 3.8495193750004035 6.027302266596077 -4 -7 5
578 2 2.6741139753994045 3.121379554629175 6.408348686362502 8 4 -11
110 1 2.735591793763739 4.279403281992079 5.7989590337324675 -11 -2 19
180 1 2.9408476654820355 1.7228989725921242 5.1440925522548575 -1 8 -1
523 2 4.175565694377519 0.039664294248040105 6.85606061114038 3 -6 -11
416 2 4.593690892410947 1.1179618812491126 5.1657466621935955 -7 4 -6
225 2 2.1686484821047074 0.5326189373837897 5.699210009162213 -5 6 22
154 1 4.1530164656307536 5.0118356445953856 7.758092335714601 15 -4 12
522 2 4.782515266343463 0.3722555031769638 6.156829323204534 9 5 0
75 1 2.4713634753106435 4.528565342303967 9.001142970949688 -9 -2 -1
626 2 4.495011632483723 0.277533976126176 8.702438769170051 -7 -9 -13
199 1 3.069541750829809 1.2662551165663887 8.118669192045198 -1 7 -1
37 1 2.443991310638028 0.20660435125190074 8.505501718008446 -1 6 -3
109 1 0.8834467168683208 0.6761655688063851 7.722315090329098 -8 -6 -12
571 2 4.290564398348547 2.3748101199048253 8.999363460821526 -9 4 5
699 2 3.3591728885136867 1.5377127640590444 9.147183899328708 12 26 2
216 2 0.9761991974523124 3.293916672965938 7.219726093549091 -7 -7 2
710 2 3.3581858691768893 1.9033481349196881 7.342796552661445 10 -4 11
185 1 4.063658544738305 1.0935182125498237 8.3710003148918 -14 -3 3
117 1 4.98695973114974 4.271769286094027 9.47901570485583 -8 12 -5
139 1 3.312167103294483 0.4729511042613059 9.295248945952844 14 -6 -25
500 2 1.3942172837734979 0.9899800686138487 6.780626893651053 -6 2 5
653 2 0.6284442021656822 4.531041705407071 8.048957452595037 -8 -3 -11
340 2 0.7184987842161523 2.110828444026564 5.306858286860079 -1 8 -5
497 2 3.2765299176828 3.207261776940697 8.400483165790241 -1 6 7
10 1 2.9566196695627234 4.07049056998115 6.879625266741607 -1 3 4
504 2 1.9406560227315093 2.319426223640683 8.568621062454138 -5 -3 8
50 1 2.434994677677724 3.1549326836853835 7.72261407342186 -5 1 3
437 2 2.909544191570595 3.5314625365828607 9.443588378881644 -8 -1 -9
479 2 1.9952345308364325 1.2041673748140829 8.037497061916632 5 7 -8
550 2 2.1197544393245287 0.4950322663014246 9.806620598896187 10 3 7
143 1 0.28449909329146716 4.188517015989718 7.188089259353711 12 1 -1
516 2 4.6317504283266375 3.3256842181950703 10.049048804678748 6 -3 -11
83 1 4.166629328579857 3.6984232456948023 6.285246019798958 -4 -5 3
527 2 1.345714555206768 3.2730149596145233 5.35276912550386 5 11 19
157 1 3.1296912539039785 0.27758031115905496 6.880986476199844 22 -8 2
530 2 4.323897638651427 3.2802127238232517 8.022503568144467 10 -5 -9
219 2 3.7983990698294052 4.154903018305735 7.544673227069012 4 -1 -8
493 2 3.4307928917866732 3.048264080406127 7.0837835124576145 9 -2 5
189 1 0.8475822284908573 2.9077326908144854 9.329940370496002 1 5 -3
58 1 0.4044239765997444 4.959224494494354 6.384674754999276 14 17 6
121 1 1.1809849347287888 0.47472298036884747 9.448915540484114 6 -20 -3
62 1 2.341947972786195 1.266516201926195 9.03334821833331 2 8 10
158 1 1.897002645699801 3.356179002155591 9.27089478551672 -6 -2 -1
46 1 1.2373064906590723 1.5811475350260864 9.746290322089582 9 -22 -18
287 2 3.7377264021841827 4.724485159871933 6.29318680635277 5 6 -1
94 1 0.7124501517354264 1.9789167447861935 6.731865535400435 2 -1 2
396 2 3.7620865974051996 1.457474243438566 5.637270535714862 -5 2 -10
679 2 4.804749324599044 1.2304096494959904 9.35959581040261 9 6 6
511 2 3.432766285028042 2.716843923156203 9.781619528177254 2 0 -8
632 2 4.0087193892059245 0.3561875653787082 5.376121290992192 -1 12 -9
12 1 0.049383392328537334 3.801321354215461 9.333466407595052 2 3 3
170 1 0.5931998587967109 1.4148585306973107 8.875971079183666 8 9 -12
162 1 1.4950361377533816 3.616280817703007 8.040592408193495 8 1 4
220 2 4.341356568614211 5.5837019574424875 2.8926115856890333 4 6 -17
309 2 0.4703762690480675 6.825915439447723 4.643867478607221 0 10 -21
108 1 0.23349964710292204 5.774576979518838 0.5092573598594687 -7 -4 7
702 2 3.2251511242953796 8.036797537169797 4.31583244821969 -8 6 21
618 2 3.117527473673257 5.421802081837328 5.002065008886831 2 9 -6
392 2 2.6005158496436502 8.672899820287839 0.3466287560465514 2 6 9
404 2 4.371886830791228 5.605636898152427 0.7989099272191172 -7 -19 11
463 2 3.581984506120962 5.868195949107325 1.4448649815618135 -4 10 -6
685 2 2.1801502366340584 9.816188973399031 4.7858390040958705 3 3 -11
558 2 0.5456968165347821 8.828493232255568 0.8835427672354037 -2 13 -8
509 2 0.8047695578040592 7.616356920835046 0.3884920085958856 -8 6 0
32 1 1.314907260226329 5.7559614464798425 1.9936100245072015 7 -1 -6
625 2 0.5879076282239922 6.680777394455065 2.7037927247945097 -7 -13 2
408 2 2.4793925300758075 7.220068688290791 1.2395951526464892 2 2 5
35 1 2.6690808265412778 6.141617299947792 2.0479557975364115 -1 1 -12
498 2 3.9715402350284683 8.851745332436256 2.174123456113155 -7 13 7
448 2 4.063672448954947 8.171058038268235 1.084713355488087 7 6 7
658 2 0.9473663724866042 5.130496225478312 0.03824293110720971 13 6 -10
520 2 1.5379277606299655 9.630461152829238 3.960392692322337 -11 5 -12
221 2 0.9758584109584876 7.822073237963967 4.210694123898326 -11 1 -14
429 2 1.228448486591623 9.9581772649144 2.477593968733876 14 3 12
265 2 0.6414795460089256 9.78217535896745 1.5209634224837485 13 -6 4
223 2 4.146918303822228 9.24841110751536 1.2032343013636633 -2 -19 -2
531 2 2.7580977688385806 9.92791233097727 1.0331622819017536 18 -16 12
425 2 0.4096016398042444 9.994138605952957 4.200192684452187 4 6 -1
332 2 1.5079622543823668 9.025038106315176 1.941856047132379 -6 -10 2
239 2 4.578491050334597 8.55630784956472 2.7892584253426804 -15 1 -3
650 2 2.602857905312004 6.789543372821052 3.55004587652344 -4 -11 18
370 2 4.113782330254623 8.084846702012184 3.6598979185524363 -8 15 13
666 2 5.006248797785754 9.729907832743892 2.67847435835742 -5 -6 0
354 2 4.668713489377233 9.774430662697405 4.4919973910617275 -3 -10 -13
203 1 1.780050395327412 7.33514335360344 0.4934998060810165 -5 -8 -15
91 1 0.5409678608052406 6.950313496419079 1.3081132592135793 3 -4 -13
254 2 3.26383342730202 5.720303171152783 3.978047756335382 2 -12 -3
295 2 0.5098751707495559 5.291949590111087 4.477752265013357 1 -8 0
268 2 4.266289656020825 6.8590265002104855 1.92569564422988 -8 4 6
379 2 2.7277638469716354 5.619957687900679 0.9830623490078592 -14 3 -2
713 2 4.165279674747137 7.730290095377715 2.4088806064577497 -2 -6 1
360 2 1.8913598562988978 5.92253002312783 4.710801903423638 -12 2 -11
355 2 1.208699989373929 8.192424354182968 2.2931095614556773 12 2 6
318 2 0.2627856991991009 7.839304394387683 1.9622710110977533 1 -11 -2
399 2 1.1910442855691912 8.791032330723468 3.2910477359986774 1 -7 4
577 2 1.2523567426906568 5.864780780082043 3.306627675936972 5 4 -4
638 2 1.9465923731892745 6.229970192188249 2.7495020135543675 -6 -18 3
350 2 3.3164821533529607 5.7578203281933495 2.9529152471326108 -3 -6 8
165 1 3.24738290534327 7.707538045635564 1.847326679549225 -21 -4 3
192 1 3.7123486058891686 6.941567928246674 0.959557042983932 -6 3 13
149 1 2.0724733991026008 7.094937972905711 2.0943567580444933 -8 -10 -3
107 1 3.3014222793496586 7.003360875023703 2.6246719035451678 6 3 4
704 2 1.4366815088242568 6.138141977669066 0.9405035091847528 -2 15 8
686 2 2.1737558954173855 7.82812138970386 4.8945386031627125 0 -8 3
278 2 1.5639980028692113 7.903415235954428 1.3865438277539006 4 7 4
568 2 2.4120674826482835 8.651293395759998 1.635974049807587 2 -1 -1
260 2 1.4116698641646195 6.8320959531518675 3.5154239430145195 12 1 0
232 2 0.5007858633982701 8.876868138470185 2.322469633642166 -3 -15 -2
88 1 3.9876338111768503 9.401040308953949 3.1951744182674933 1 13 5
552 2 3.3572979395744724 7.757173659132833 0.514127930051079 6 -12 -10
672 2 2.058844329392917 9.900218633974683 1.8514245098570614 11 8 -5
412 2 1.949532069000523 7.0662557830141415 4.348001154098746 8 14 -2
649 2 2.135021052796022 8.865468809797472 4.109875016043527 1 8 -7
466 2 3.177877823948249 9.492634035933147 1.852124536180583 -2 -5 -6
375 2 4.378084319360968 8.683537978482772 0.2859866537934453 4 18 -3
570 2 1.9607722108988528 5.302408363293348 4.004260656273326 -2 9 -8
367 2 2.9768518934923724 5.120827032153771 1.8245864399305722 -7 15 -7
620 2 5.022256034128359 8.217313308627451 1.9241325528243376 -14 3 -1
462 2 3.3431830801905242 8.357642901110209 2.805662003122074 -5 2 0
499 2 4.409139990076227 6.148486417719389 3.91963340337916 0 5 -2
175 1 3.7015579097603464 9.690908239896222 4.702384908817446 -2 -4 9
141 1 3.3567652044020804 8.698517405482526 1.0678087074764249 -8 -11 -4
186 1 2.0049529655845646 8.642096329938658 2.7551136869818227 -4 -1 14
510 2 0.9940588661515848 9.063399453638931 4.654687253322208 9 10 0
671 2 4.887221186665647 7.720530208732103 0.3569854375118854 1 6 0
214 1 0.5636463293040861 5.485411814670621 2.7655000331563637 -3 1 18
270 2 2.911119759122331 6.960605200722165 4.889951100774019 -6 -6 -4
250 2 1.5369469843706258 9.411116880997227 0.8632488744009227 -3 -7 0
664 2 3.9354066711533036 6.993954936608485 3.4910973519688033 1 1 -7
585 2 1.8008900742182874 5.252490462735594 0.40645905179422115 11 -7 3
386 2 3.909718465118924 7.1182581495259765 4.765810439488599 -12 -14 0
372 2 2.893668982150087 9.815551000847327 3.973688631915884 4 7 -18
369 2 0.6366539916985773 7.707840079857751 2.987391287063587 -6 -1 -14
482 2 4.859371397145609 7.204906054177388 4.229737111808852 -8 -14 -4
698 2 3.8090499165948524 9.034766065737408 4.043604524276219 4 8 1
253 2 2.803506881130615 9.202759536797677 3.075774409934341 3 8 2
231 2 4.157390426806029 5.221716911849469 4.20563656623902 -1 4 -3
452 2 0.03785439899657274 7.01693004839171 0.4306712414875224 9 -14 -4
313 2 0.030399252727284203 8.502070783259411 3.530650980142325 4 -3 6
245 2 4.984895571753868 9.116041897234687 3.760714440396588 -8 -17 9
707 2 4.982835689982107 6.7568449378302615 0.7290756194729993 17 3 17
276 2 2.097314296033351 10.000032043059072 3.129014175457854 -6 -7 -9
431 2 3.9187456468889184 6.11841931607524 4.711780754787301 5 15 21
678 2 0.04755304887619082 6.050384369016293 3.8484133581580973 2 20 5
3 1 2.0569591731154775 9.53674272066018 0.0730711271363418 -2 -4 -1
263 2 0.2305413789047552 9.724428033533194 0.7044061743494364 2 -9 4
518 2 4.582200406686589 8.620109808548582 4.698620953529082 -2 17 -12
642 2 2.4502947573513434 5.348315370608892 3.0260610092209763 -2 13 -3
228 2 0.6962015029795192 5.204242121599374 1.416929228666911 3 -2 6
539 2 2.5768230118378757 6.160807309837806 0.19740184589292153 -24 16 9
377 2 4.991427026069762 9.496516527119802 0.294247155851286 7 17 11
104 1 4.968868541809899 8.271045169067094 8.559419830398735 -1 -13 -7
13 1 0.8956789630602716 5.9624898594449 9.227796183847325 -2 1 11
356 2 0.3469160199384242 8.08724392240443 9.447728087463059 -7 -9 -9
298 2 3.4858233767137503 9.817950279079598 8.662046821477695 0 16 -15
541 2 2.6396471767843424 5.3506726057124485 6.137650143041347 18 -5 9
34 1 2.6203095278413597 9.714535048434987 7.607030270152622 11 -10 8
133 1 3.686106770667188 9.77299433208873 7.7157044642928865 -3 1 -6
349 2 4.538352480431264 6.450184274688275 6.502006968867859 14 -9 3
433 2 4.155109008772323 6.575240911070299 8.991380154995607 -12 -16 2
588 2 1.7683675957340457 9.124451325518594 8.953258360777248 -3 -1 -1
23 1 1.7665329103554306 8.628330287299775 5.59635254473963 17 -13 -1
292 2 0.8537980410677385 7.613001951896465 7.072870169947005 14 6 -14
687 2 1.1591665349731857 8.482153992394894 6.985892941650567 2 -7 15
426 2 4.9929582912849275 6.390580841954446 8.478495811641784 1 0 10
712 2 1.4537516127721795 6.359183226672077 9.836577456579235 19 -17 -7
669 2 0.1641789242399338 5.883522088840568 6.007052760647694 2 3 3
316 2 1.103343077929981 9.412257159170931 9.606891751195525 12 -9 -5
472 2 0.5508992793347437 9.136173656576199 8.659971698334632 -3 0 -14
151 1 2.9836195046434986 7.567480238005743 5.820603086474106 18 7 -12
345 2 3.7589939806745067 7.927840882839433 6.686247513157292 9 -12 -11
592 2 4.09303766728637 8.403023352693287 5.747180221820429 0 -13 10
689 2 1.1609595032509394 9.961273233547661 5.4853912230845445 -1 0 13
701 2 0.663223323168352 9.507281420273632 6.408504079892803 -5 24 11
76 1 0.9594685750626993 5.825232678856535 5.167952506611124 -6 -9 0
59 1 2.391409732317359 6.203479179964531 9.296744456789733 -5 -4 10
358 2 2.7556930442238667 8.600310521070423 5.889505765834403 -4 4 2
674 2 2.5601059797526604 9.624826453942115 5.7325648333252985 -1 -1 8
536 2 2.766149679573236 8.739915203618477 7.982189201372217 0 -10 -9
390 2 3.80059798816502 9.191401429860003 6.252924496603096 5 -13 -10
11 1 3.6647043191324085 8.263208018337718 8.062780431312916 0 4 1
622 2 0.6270232554745695 6.973706972971326 7.861705477665051 -7 0 -21
604 2 2.662777371003935 6.712368247930257 6.517142734345862 13 -4 8
67 1 1.841953512065094 6.48532306253386 5.598387795994035 1 -6 -8
424 2 1.780155482260822 6.110798966378188 7.435698010291392 -3 3 -15
602 2 0.7547527428513372 6.6427133510279095 6.084596629325169 -5 12 8
258 2 0.28519694705829346 8.66403565680016 5.8727707447949795 -1 7 0
226 2 4.735429101524647 9.546092159695784 5.7231137696643835 -16 0 8
86 1 0.3644725420746811 5.059148318328387 8.815479492402755 12 7 8
31 1 3.1271422887008304 5.873837384489396 7.536674045366231 6 10 -8
544 2 1.7835667759462708 8.904621924925303 7.8163905347311555 1 -8 -15
521 2 1.570238589910952 7.010469248664991 7.654593247838536 7 -18 8
85 1 0.5493490312375705 7.608753574866556 5.632030463771099 2 2 -6
706 2 2.704903019569168 6.819828165227412 7.481556575201895 0 3 -24
447 2 3.5495123088189517 6.584500697350382 6.948480187277957 18 3 -5
222 2 3.154533746459094 7.2963810558863065 8.372564701720068 16 8 -4
39 1 3.3408025443369938 6.093253800875058 5.836380106198588 0 0 -6
342 2 2.7760157347559655 7.777245956995909 6.8970445672662235 -22 -1 -1
460 2 4.309441888340576 6.6229629041437015 7.599666862277344 -11 1 -2
212 1 3.6896257720384296 5.408906938274385 9.349570121202202 7 -4 -7
445 2 4.732476714779951 7.795842417437668 6.308992559918886 3 -2 0
373 2 0.02679123547393626 5.2373309312290575 7.610677745127471 9 -1 8
596 2 1.9725666013214052 7.873474703597432 7.764918661111019 -13 1 -5
153 1 1.2892768868985875 8.18696537921632 8.503470505140289 -3 2 -8
381 2 4.003672381854391 9.63938546562589 9.996053750119797 -12 5 -3
716 2 2.0080053471515176 8.876387933088202 6.4938201039290355 -15 2 -8
251 2 3.006335057176615 8.939465362994657 6.960579224882679 -7 -14 -1
6 1 0.9982432022994022 9.696502393943472 7.692223760767282 5 -8 -15
81 1 4.495400187141268 7.586021559232065 7.318738602166247 -14 6 10
677 2 4.799780398947713 9.350403059663037 7.562506074082069 -3 13 -5
71 1 1.185463867646571 5.340481069034314 7.079673315877789 1 10 -1
27 1 1.3619215377722858 5.37434946606375 6.0094362309601355 13 -14 3
89 1 4.713220245136329 5.325273258375637 8.758101058686222 0 -4 11
163 1 0.9217788159095456 6.834226911827528 8.783127926529282 -3 15 -6
563 2 1.6921629722028357 7.019701343472305 6.526573518562169 3 3 -2
532 2 4.943457045403786 5.685080596109597 7.366366101798254 -10 -3 -4
525 2 4.301645373652643 6.668339227778185 10.068905561782433 3 -5 5
167 1 0.9288973988177527 6.0021856109296765 8.10570120874724 1 -10 -12
201 1 2.2351675680276832 5.1737292769461805 7.313047920034927 -10 5 14
696 2 2.0744771483645374 5.693890017690301 8.484049393102916 4 5 11
41 1 0.3849438373547231 7.666261681111347 8.526174352745867 10 1 3
274 2 1.8195627727807042 9.824624289719823 6.772223408780275 4 0 6
590 2 4.855024594403964 8.523505221247232 9.562018192738117 7 -9 -8
217 2 1.3535114430835735 8.37729575116033 9.625172099143905 -13 -8 4
503 2 3.479275992281785 8.640135081930293 9.563967933165543 10 2 -5
120 1 2.404799520876376 7.990264210765302 8.678301419842251 -17 9 7
598 2 2.941555890919722 6.933271055310821 9.6862248792728 1 1 -1
116 1 1.912954357703036 7.231399203342266 9.274206057431126 1 -3 5
637 2 4.399466172771042 7.479538093471533 8.477299975497846 7 -16 6
195 1 4.797777946677201 7.281130968449467 5.4529264649587095 9 -4 -8
70 1 4.726075213254188 8.873918432541242 6.544376661715881 9 -11 9
630 2 4.111288610710474 9.051349946811285 8.474658710115664 1 -11 1
561 2 4.105578244427897 7.57460785012346 9.652668589014446 9 -1 1
256 2 4.943788437410439 5.9976419389919915 5.481577796783825 -12 -1 -3
359 2 2.769491340213518 9.706922689966689 9.386967993961736 -8 -12 -9
611 2 0.07266734979130968 5.8207407041003005 9.606895623699357 16 0 7
282 2 0.0626501772841876 7.0710225162464395 9.569065090343747 -3 8 3
126 1 3.2568048960751472 5.077920921805101 8.460546576893277 -6 -9 11
406 2 4.113088998653291 5.052266032270937 5.22227825829371 3 1 -1
631 2 1.386687933549385 5.153540460248994 8.106480133905919 4 -22 -7
684 2 3.259427353067409 8.82901919579917 5.102653957770318 0 2 -2
641 2 9.76795713901402 0.9586328057128682 0.6403719934668916 -5 5 11
299 2 7.064362646831523 1.9222588342418656 0.5619166372087684 -10 -6 -6
662 2 9.449847271290546 0.0009957451576259047 1.1298073217272955 4 13 -3
468 2 5.78052746104087 0.36338846496425475 3.3015311849670432 -6 -9 5
469 2 9.576117109718565 2.042208955720745 0.7784360446116337 -14 9 -2
584 2 8.197672980463484 4.65447495740922 4.25017049435756 2 5 -5
595 2 7.935768332103259 1.5229009053291789 4.608885044536429 -21 4 -1
215 1 9.60822476740376 2.997397980156349 1.0376984244973657 -11 -7 -1
15 1 9.439753862071438 4.659677568732393 4.367825030255215 6 -8 -12
415 2 8.74935659689339 0.8937236002690498 1.0604999660462273 -1 -5 -5
573 2 9.433043209879772 1.199764123692581 2.760054937358895 3 18 2
335 2 8.568500147447395 1.8343746956607994 0.667186854580098 6 -4 2
297 2 9.975026710731724 1.3745597009959176 5.000749538910314 -1 -8 3
419 2 7.805879404433664 2.9987526354317304 1.0197545904379364 -2 3 -6
605 2 5.8000659666830945 1.6166251401885858 0.3781522318421753 -19 -2 -5
102 1 7.980771742691518 1.3879050466209857 3.1400961525631215 -16 -6 -6
100 1 6.854567557410161 2.8182334883342666 1.7389272829239701 -15 -7 15
537 2 7.031743462750076 2.9842471926915795 0.487536733929969 9 2 -7
394 2 9.406771636557338 2.432086075076135 4.794475363962447 6 -5 11
668 2 9.834926825531099 3.7529923307847137 0.2016959638963285 -2 4 -4
344 2 9.676242608794965 1.0806916898509105 1.797336846495463 -4 -7 1
676 2 9.170089169725179 3.030810637219245 3.4808664103468727 -22 -8 3
174 1 5.239339036152008 0.551371312398262 2.3990702388143115 13 -1 -6
47 1 6.1958374399415055 3.9477929837951216 1.7279044197153024 13 -6 9
98 1 7.992116762525762 2.496629087353433 1.9664092516990943 -6 5 9
654 2 8.091097931523304 4.636940663853032 0.4476391615112574 -4 0 6
208 1 10.03987712982097 4.125643475372135 3.0355589533705483 5 2 5
60 1 7.655090553244384 4.256257172844169 1.961996322099547 -12 -8 -6
65 1 7.49359709911636 3.017356934527614 2.6278745878212795 -13 2 2
680 2 8.756080762062162 4.265454608700201 1.9651880869794283 -3 -5 -6
640 2 8.077886003335392 0.23662790935856937 1.6461352204304527 9 6 12
49 1 6.84526768064182 4.827125847303277 2.192923536971762 11 17 -6
636 2 9.87921731714307 4.842997441270422 0.8348478293659105 -2 13 -2
25 1 7.380240654011215 1.4132951938753109 2.0803629691068983 3 1 12
357 2 6.970927484543857 3.338345659659934 3.7966540182976414 10 9 0
559 2 8.646752563131809 0.8412302125059794 3.986164469408366 17 -3 9
246 2 7.622487881196716 0.8825265933736653 1.0598219256114338 10 -10 1
548 2 9.566834920738728 1.576614106263883 3.678072518450118 3 -13 22
22 1 5.280627025307301 1.3888603915099245 1.7823325808093264 1 -10 0
473 2 5.972299336048904 4.7521734861391565 2.914863865357453 1 -6 13
142 1 6.414427954841213 1.2852343897675051 1.3003058176273647 17 14 -8
82 1 8.339408258952416 2.2608951369641876 2.979052540579975 -5 1 8
614 2 6.331843735576974 4.060183127462844 4.293148659391668 -4 13 3
557 2 9.339104312463721 2.2316714480557134 2.7195514219113144 4 8 2
130 1 9.002034740080672 1.4529333315537518 4.971385705901256 -2 0 5
29 1 8.40457827587268 3.493703618012431 1.6878317645487773 -5 6 3
529 2 9.423049709758574 2.3634453015028103 1.7237691706296259 -9 -3 -2
4 1 9.946357411108089 3.4790561288539306 1.9790303429794736 -1 -2 3
480 2 8.795912452585062 4.981479313389844 3.3322783342807836 16 5 1
284 2 5.450013455624227 2.3654299237988536 2.8937677512625974 -20 -2 -8
378 2 6.297098695662107 2.95943504407631 2.882077817442992 1 -4 -2
422 2 8.708202926962679 3.925170912920758 3.3492310356570414 -3 -3 3
312 2 5.192459446432913 3.990468633700374 4.320940372252167 1 -8 -10
624 2 5.989060067943994 2.445881986858654 0.9546230029976596 7 2 -1
61 1 8.970992329713125 3.5207738870310012 4.51180716299154 -26 5 11
160 1 9.178182488095564 3.502919157016669 2.6235851536156334 12 3 -5
621 2 7.7921423109399255 4.511859514629024 3.3083768105194964 -16 3 3
328 2 8.965928808248487 3.2484444258555656 0.1325489473929272 -11 13 -3
603 2 9.769124322024933 0.5571866125688675 3.660608711650049 -12 -1 0
19 1 5.983358509031677 2.0107556746664783 2.0630779877236636 -3 7 -14
26 1 5.765768629536192 1.478911559241523 3.6280640378388727 2 -4 -4
329 2 5.483318758198518 3.3150920191897484 1.745582945432178 -5 9 1
93 1 5.98669449186021 0.3692260257809037 1.783318243126575 12 -14 -3
673 2 8.827568517053976 0.5279977317809729 2.5039562939357025 6 6 -9
272 2 7.60662067346856 0.6934168437002332 3.711881550197785 9 3 -18
302 2 6.629351742546537 2.0200329131507706 4.125499548301819 7 1 11
491 2 5.801222364117486 2.886482560359987 3.840150556337041 2 1 -8
543 2 8.6279508053744 1.4954360853111481 2.1558184111402245 4 -3 -3
207 1 9.423904370897207 0.41575613799717465 4.856415339401875 2 2 -21
168 1 7.679898511165363 2.4402747660506514 4.196570657640447 -6 -4 9
198 1 5.79139394278143 3.739975972732184 3.2897332573474265 1 -19 2
227 2 5.639993024944783 0.615442703445321 0.08305751027362453 11 3 6
64 1 6.4135896917341775 0.9525094156891751 4.404597918612179 -6 0 -15
389 2 7.908498772435219 3.3134763148749937 4.38966089272747 7 0 -14
634 2 5.194816060683903 3.841267266888313 0.784873895093528 7 3 6
380 2 7.077735914905094 2.15042002812017 2.7357646003217093 -18 -6 -19
449 2 8.712751501442812 1.9614222357050517 4.11586998772002 13 -14 -1
150 1 5.892887910677885 4.636856109686764 4.808313645634238 -9 -2 -5
534 2 5.2428303220580155 0.3017010943382349 1.0204127727099128 1 -5 9
538 2 8.993070203836107 3.9345560596870475 1.0298617468262574 0 -1 7
353 2 5.2443252823176065 1.6395041813231335 4.67618896633764 6 3 5
28 1 6.172763256506298 1.004990561390606 2.5897064785468853 -4 15 0
206 1 7.183880894236099 3.7791535643123892 1.0206490414063258 -5 10 -9
319 2 6.951425420594615 0.48567441659119515 1.6686566289502591 0 7 3
655 2 5.097699533342747 0.7583088375941938 4.142613115915619 -12 -3 3
285 2 6.678644331418264 1.1292369557720279 0.0844258046678585 -4 1 15
579 2 5.580458518696162 0.12697227821756982 4.9922290667560585 14 20 -6
252 2 7.222744377165125 2.446376469558068 5.027225673291692 15 2 -11
213 1 8.493843594847773 2.762054746817309 5.029561735035188 -3 1 -1
311 2 8.830364966231762 3.602617985167508 8.537185108427906 -2 -3 7
52 1 5.7542183497298565 0.5848039982320757 6.442286801598552 13 -1 -10
152 1 7.010464961941452 4.688995673216625 8.671415960093027 -4 -5 -5
234 2 6.107050646654047 4.976064714422846 9.681592819061494 17 7 7
715 2 8.093089313660956 4.464545657981352 6.334023779184603 0 10 1
337 2 9.748857549688163 3.4691503810257225 6.4980775424969615 -6 -4 -1
322 2 8.178723725285886 1.385358100348924 5.867956669941626 2 3 1
55 1 7.072247261905829 1.4686443699247875 5.276752789815212 1 -11 21
269 2 5.735105700260628 1.9031465762835544 5.53620341113523 3 -7 7
613 2 6.34356059654597 4.1808580276758995 5.776065270693191 4 -11 6
113 1 7.03113084839876 0.8647885573850296 6.398535168886439 11 4 14
430 2 5.93371129254426 3.070735796418236 5.160132125966465 1 -8 0
656 2 6.56102589427618 2.8159447237207633 5.857632074318471 15 0 -1
18 1 9.51134647161433 1.3610855555552586 8.652037589921585 11 -5 -5
267 2 7.917391214738585 2.474786258786179 5.735755838952842 -9 -3 5
289 2 9.196569705730257 2.0627016739666897 5.778738471426512 -6 -11 2
681 2 9.946432767264428 1.3693940829161888 7.20885916011548 -11 0 11
675 2 7.463189088805422 4.075322684424442 10.019815467323747 14 -12 -6
97 1 10.009322687024355 4.181317978961314 5.640645717538161 -5 8 16
464 2 9.931483337235859 2.5141920586149387 8.88957350760062 0 -11 6
387 2 7.113354084881034 4.065967772323199 6.8818815203846935 -17 0 -3
44 1 9.906368159037877 4.736924044340342 9.95299488278843 -3 4 -10
376 2 9.967211730326047 3.4912492662074097 8.028618728531576 12 -9 -2
576 2 9.511417214865368 4.288054581900452 8.908023347069557 -3 4 8
555 2 7.626959529500217 3.381401574721195 6.342837897310029 -12 7 3
481 2 9.832440664479508 2.87008553092171 5.692465483342316 -14 -14 -10
103 1 8.325686415829272 3.893456655244786 7.13283329726802 -1 7 0
351 2 9.086366894529686 4.362620791344569 6.8440497150159 -8 -6 6
266 2 7.692148060256325 4.96671984124668 9.5814702610535 -18 -5 5
477 2 6.687811932449974 2.810015306245046 9.64471825062575 -4 -2 -2
177 1 8.67399336861442 4.6294502542425295 5.219207771045986 -12 3 4
556 2 7.117482052949166 2.312459311909769 7.6380517398617975 -4 14 2
56 1 8.195831713391243 1.8624416058690707 8.359982755775025 9 0 1
629 2 8.521451128280864 1.020276312532522 7.681799097271841 2 9 1
562 2 7.532673364281678 0.7732919909123237 7.565602332730753 -13 -5 6
90 1 6.329399206842946 0.8313858383293081 5.4661598496806985 1 -5 -9
249 2 9.479134684672529 0.3353885283525451 7.502720291861257 8 -5 -1
411 2 9.698494460291036 0.13054088346676568 6.474233023005673 4 4 2
20 1 9.613828564395671 2.2856321948148124 7.890330388008305 12 -12 -18
169 1 5.175604239366898 1.9338906689629947 7.114194653970777 -1 6 4
115 1 6.06131134657131 1.5835485023716889 6.472627414065509 -16 12 -5
569 2 6.613551524681067 0.19382205967355115 7.882953479478109 -2 0 -2
210 1 6.689477476463788 1.4511657676711267 7.416569661070855 1 -10 9
441 2 5.429868012290013 3.3581985599488773 7.910649266003565 2 -3 2
623 2 5.145354380801098 0.7476794993281456 7.451367235061366 -1 18 -3
708 2 7.618261027357549 2.082950277609977 6.639764321179889 3 -6 -6
14 1 6.402832009584235 2.9983151669011203 8.512249807266953 -6 -7 13
101 1 7.989261632990314 1.1594684122717571 6.884091846099602 4 4 4
78 1 9.032789936058935 1.3187390496077298 6.539586069738677 5 -11 4
283 2 8.252319937976269 1.9653251200219535 7.492046549518463 19 -2 16
467 2 8.849610943965148 2.7058983291835155 6.611689810709455 -9 -14 11
8 1 7.978189604466847 3.1787470005861356 7.8461698768121435 11 -6 7
572 2 9.921462019770374 1.1809267965634807 6.1794818561427265 -5 -5 14
663 2 7.899275356912445 2.871975732401499 9.856862103655061 -9 0 -1
122 1 6.1341485432419605 4.06806617675548 7.939300112578772 1 10 3
458 2 5.27676457303817 2.919300417339307 5.952729325059652 -1 -6 -4
105 1 5.394650337772992 0.3283271274975842 9.25804925591221 -9 4 3
547 2 9.885104608541342 2.7140703959353423 9.996465837222553 8 1 -1
423 2 7.140098393686601 3.489038721457552 7.7824369746573625 -6 -9 -3
612 2 9.164232876931921 3.2296119616644656 7.403530344062682 -18 -17 6
38 1 8.460977558261838 0.41923774240168654 5.2156643279829185 3 -2 1
43 1 6.1458330449824725 4.498012275126849 6.950440013421271 19 -2 3
442 2 6.396594701183224 0.1733342981481521 9.537441053224887 12 -5 -3
73 1 5.404695999290834 1.0721499703752144 8.555140323204673 10 -4 0
54 1 6.363322137493225 3.974897337853157 8.887245867293318 3 -12 8
40 1 5.575752466805171 2.624663863204979 10.006065723956828 3 5 -3
308 2 7.421237005464305 2.3908117027914013 8.772058264744672 0 -2 9
599 2 7.4388262763702935 0.8933128771721306 8.596462650552679 9 5 -15
488 2 7.591234991714347 0.6598974405665397 9.740108612116748 -9 2 -7
200 1 8.24343301330415 4.180579567786378 8.218374206402489 -24 -21 6
131 1 9.305822216190666 1.693595822285378 9.93333851557157 11 7 -5
300 2 8.349671625484465 3.7728263101426602 9.552487867856748 8 8 9
296 2 9.053825612632634 0.1656715404958124 9.024610802504066 -5 -9 10
21 1 5.387037420555939 4.487677809566796 8.598949794766131 -1 -12 18
181 1 8.719718788294978 4.72351782535627 9.655185790276782 5 -10 -7
366 2 6.167085211967129 3.309169269910462 6.956899270300024 7 7 -1
647 2 6.6738588399510705 2.381436986915855 6.732574118061731 6 6 -7
659 2 6.110303242765462 2.4622644250287333 7.686453637445136 -2 4 -3
352 2 7.560557731633407 3.3888007714271664 9.068596640280099 3 -22 -11
474 2 8.75364666372352 2.6526478779537124 9.027729516991586 1 5 -9
492 2 8.723982577234647 0.26304945955589426 6.3283530784924125 -16 6 -8
619 2 6.097248635765837 1.2290509389596669 9.272728656480577 15 6 3
594 2 9.352854144077146 4.271168233158663 7.8879703176027975 0 10 -20
211 1 7.326620037293183 4.6402563874403615 5.406633168094915 -21 7 -9
524 2 5.513995376044782 2.1502083516425032 9.140604060370919 -4 4 -17
279 2 6.564982800598536 1.9914509292953366 8.5847691114249 -1 -11 12
166 1 5.101166645666131 5.007821244541551 6.45342929393475 11 1 10
132 1 5.171519733148064 3.973765355089802 6.739045221726315 -7 -3 8
42 1 6.488606345843324 4.921825851356953 7.880845186859206 -6 -5 13
501 2 5.105446625195639 2.120982747176009 8.073601463281397 -9 -8 11
564 2 8.749131941008233 0.8493025155424145 9.883546789342272 -6 4 -11
48 1 5.13170143277536 4.0788188014985005 5.611191924256555 13 0 -19
173 1 7.4752503625393745 0.33948526090569986 5.548191745451597 -3 5 -5
257 2 8.097172362513634 3.750116233755093 5.536493454931305 4 15 7
581 2 6.95712635551559 3.489033512015948 5.040948360272706 13 12 5
294 2 8.06737913460292 6.704326584445699 0.8327389046350359 -2 11 10
515 2 5.271521113336804 9.224535818983284 1.9245103562954713 7 -3 3
363 2 9.525555969538361 5.595623527497065 3.068441938409939 7 0 -6
606 2 5.111242399615233 7.117486818696851 3.139333446663172 -7 13 -4
7 1 8.513936825294618 7.462611230053736 2.274084126183361 0 2 -5
17 1 5.852339793505443 7.397653468363196 3.7018317850288276 0 -4 12
667 2 5.634624867595208 8.50616816524123 3.3862783490506385 6 8 2
591 2 7.1346515133747515 5.334057740748846 0.48434541126240754 5 -8 -8
187 1 8.98796973718477 10.067790353514491 3.388514592936409 -16 0 8
409 2 7.097415883805301 7.815611626956693 1.2727451247989334 11 2 12
490 2 5.922222347149627 7.100174825706152 0.38723948513448303 6 -8 9
134 1 5.598838341495646 6.244357889337641 1.1597211355501829 7 12 6
528 2 6.417265376926736 8.09661508515238 0.3398124232703629 -14 -3 -3
692 2 7.130871453302924 5.746144720766356 4.844555089066788 15 0 -12
275 2 8.117885381053727 7.659542951774946 1.1724693851157897 -7 -4 9
125 1 6.654267560931171 6.392824164610955 1.8844080107596306 5 8 13
111 1 8.174625306116557 5.794595411247096 0.12466437656098227 7 8 7
147 1 5.4076742308492936 5.193645296233959 1.6609149468057185 -14 6 10
465 2 7.582444134006165 8.560485174368786 0.7437170858868963 -10 -11 -3
540 2 7.4815746836606065 9.68344415732656 4.109683935398744 2 -1 -7
435 2 9.05373418997953 7.400656392848053 0.4325655967051475 1 -14 -8
567 2 6.139522979473216 8.339253501327581 2.0749780353654854 -2 5 2
682 2 9.418396531772622 7.483186598552664 4.983869008318526 3 -3 -22
118 1 6.678716191122117 6.479995352112619 4.217387239933125 17 1 0
397 2 9.094672910053282 5.596009109768286 4.353261229189375 -11 3 5
508 2 7.254463485653437 9.877499792854895 0.7844194253010334 -10 -15 10
405 2 8.054204164052823 9.752489180488846 0.07171269680943122 -19 4 -8
566 2 8.702537055953462 8.768115275832244 3.009520209547975 11 -12 -3
388 2 6.322575259063768 8.844532119342857 1.197309684335265 13 -1 -1
9 1 6.929881568278371 5.935504817551237 3.28225536218445 7 13 -13
486 2 9.450331809054624 9.064477560705631 0.5184624607442422 7 5 3
84 1 5.113414462863057 5.94258453875933 2.3856825719335455 8 1 -2
243 2 8.898370726332592 6.590837788931426 4.690534111668755 14 -8 9
403 2 9.161825827548181 9.92569014782656 0.06496156058537231 9 0 -2
68 1 9.495629044053414 9.609814107078048 2.162229147015518 7 4 6
2 1 6.819034977637207 7.284737537499316 4.7069269477875695 8 -3 7
323 2 5.90421115125759 5.840229262705732 4.868249421792851 -2 -1 -5
413 2 5.393123749485207 8.116969893689584 4.981045424925953 3 1 -5
290 2 5.882903985442395 9.356119262853339 4.6128556431532886 3 -4 -4
414 2 7.817281590806159 5.477900214233114 3.941137749649849 -4 -4 4
330 2 8.719348302311841 6.351048876902928 1.4744848542794848 -3 -11 -16
171 1 10.061755997879585 6.13561653655957 1.9984847652221478 -13 10 -2
182 1 6.29566255215018 6.713969361501678 2.8510478089859 5 -1 1
33 1 7.835003509411339 5.712575713861333 1.233480513338279 -9 -4 20
365 2 7.725679807905367 6.660716248848011 3.23653381977892 4 3 -13
644 2 9.519267891990847 7.172712085166531 2.013858717265812 12 -7 -7
457 2 5.441676768287637 7.180635762494935 1.826365510516563 -5 12 6
407 2 6.721292893539302 7.613753170330915 2.2011865487112203 -7 -7 9
593 2 8.400538434975765 7.7945032944668275 3.3343015646192318 -5 -3 2
455 2 9.598859941322273 8.137408748520814 1.268046962750788 6 -3 -3
129 1 9.813943279779293 6.927193327611216 3.2333385618393686 5 -1 12
476 2 8.640237216484916 9.427631226223172 4.427661624087396 0 -2 19
496 2 6.844488587595092 9.147555449224205 3.3128137816890963 -10 15 -7
454 2 6.115745921620369 9.104314568978245 0.09839817884588553 -3 7 -3
123 1 8.796249705752587 8.80909600716472 1.898465675315865 5 0 10
128 1 8.68902675011551 8.444931989242143 0.8021973135784851 -10 0 3
421 2 7.066370443923766 8.438696162882067 2.405380526077273 -4 -7 8
304 2 9.174069314796213 8.744283158322025 3.9605658150751797 -6 3 -10
288 2 7.873193268634689 9.915852597286976 3.1035601118381466 4 -1 -2
560 2 7.28049261510792 8.518089091365658 3.944909127891239 17 -6 -6
505 2 7.963521894833254 5.801239143957339 2.4980258466066902 -15 0 1
5 1 8.841883384345454 5.407341734582177 2.1214984535320456 0 -3 -5
80 1 5.878586897130373 9.506258007377633 3.634972480711434 9 14 0
196 1 7.693644170354791 6.686931792504644 2.2866417224317424 1 14 -3
197 1 6.127657353478839 5.780798071106568 2.7437578319587854 -8 7 -3
586 2 6.175411288552044 5.515574452501546 1.1880940028318687 5 -8 -6
514 2 7.690835586153056 6.4573192587206245 4.3649056556205945 -7 -1 9
191 1 6.80581933296397 10.0546034165346 4.9584891003308424 -6 -3 -1
440 2 9.233604972211289 7.868759044564971 2.876287215382661 6 -1 -7
314 2 7.557503379908577 9.451689809112017 1.9354227881733044 -9 3 9
410 2 7.029809707324925 6.845489378009318 0.7456878783718426 2 9 2
395 2 9.811280963157166 8.0646980426065 0.22399713923112582 6 1 1
248 2 7.84481383674044 7.579369020597968 4.271406156075877 -10 7 -4
456 2 8.444495485988403 9.449416240327617 0.9686820083660546 -8 8 7
188 1 5.282078729558876 5.102397608097841 0.6771715669065735 -13 0 12
398 2 9.062143770729849 6.81720034136702 3.7840527359408545 13 -2 -11
383 2 5.327963468837494 5.45592328741244 3.743544703659199 -4 -3 16
138 1 6.851060637107338 7.40674231980687 3.409462260251803 -4 -9 3
16 1 8.986839081029062 6.2997985053734284 2.5892465995288747 -13 -1 -3
526 2 9.701789905716513 6.09279741353884 4.940888261198336 1 14 -3
238 2 9.318299223450417 7.716430064648614 3.927173356474363 -12 -5 -1
471 2 6.2762701428979675 8.133045681682516 4.27177814844862 11 -9 4
418 2 6.5400070106016255 9.53570705623056 1.8767143744100074 10 14 11
259 2 6.221079465699072 7.418059291953473 1.278695907903473 -13 -5 -15
331 2 10.032321554187227 8.38693159801952 4.737883076073095 18 -4 5
324 2 9.705602591903213 9.4996759510218 4.4873478591040055 -4 -18 1
420 2 6.742788753061088 9.017698182594755 4.972218829629017 8 -6 12
446 2 9.373755029161973 5.975669988638057 0.17009861741845422 -7 -1 7
137 1 5.888542975118485 7.098481025792418 4.901389390764124 -4 -5 3
235 2 7.508268268678779 8.166547362617308 5.013493117565843 -15 -11 -3
657 2 5.211348717606253 8.564787964136695 0.9223384069132499 8 4 5
639 2 6.325587927972799 5.1611535817787955 3.977937492829415 5 -12 -3
66 1 8.81364238835799 5.091570840740628 1.0074360183828472 -3 14 9
616 2 6.121074028850463 9.93217538507002 0.8935617235667322 -2 -9 -1
24 1 10.060588283189169 9.291472770570039 2.9991653560721256 -4 -10 5
343 2 6.487949088393413 10.053843679544801 3.9141678992525555 0 13 1
327 2 5.75344065460486 8.00462662115151 9.6849005370417 16 9 8
693 2 6.687729995795971 6.628448615197396 6.960767113313333 -5 7 -14
262 2 9.884981252616411 6.216018772262906 8.359103128380562 2 -2 -8
205 1 5.279820277164145 9.206105386267241 8.890753530427814 -8 -7 -12
513 2 5.564455705064221 6.09661224841556 6.502198753098561 -9 -9 3
453 2 6.320909966582503 10.017945370309128 6.848010472195083 -5 11 4
461 2 5.406933870583418 7.574311312591314 7.925753255005431 -9 -9 -20
74 1 7.755231686726679 6.496921938616996 7.06684419175733 2 17 -1
77 1 9.606455945632927 6.479202544271295 6.397859712981277 7 10 6
79 1 6.468121844731616 5.904055129266484 6.114257687277564 -3 -7 1
494 2 6.604897421813397 6.924006206977389 5.596773975003749 -7 5 15
348 2 7.100248674280693 8.574373915341306 6.558213515688166 -1 18 -3
553 2 7.098344773580336 7.478979420469919 6.308134054271792 0 2 1
184 1 6.009019075959915 6.965058304329355 8.421661881289781 5 -1 2
646 2 8.72617885581004 7.644579573383615 7.275102160546974 2 14 -11
688 2 7.295130813090371 6.27762186963073 6.151923072957731 14 0 -19
485 2 9.437721159600274 7.78681862088748 5.962999842776228 16 4 -3
711 2 5.750012854602766 8.348786010821488 6.0550697085826055 16 3 4
705 2 5.62723105001408 7.430326743907268 6.679181964471492 13 14 -3
627 2 5.856326793172987 9.6635876889057 5.885161346485786 6 5 -11
617 2 9.095215157273582 5.446723071725825 7.646230349931553 -5 4 -1
176 1 6.704428739134931 8.147172429297903 5.727219615982176 10 8 7
224 2 8.239693434913306 8.594369318349917 6.1193374494436945 -3 -29 -4
565 2 7.40527758182963 10.052390645456661 6.887167058043268 1 -2 2
443 2 9.279677018686439 9.059485682884734 6.382316543574829 16 -5 1
106 1 8.222014864069902 6.067440434081998 7.875981597398196 -9 -7 1
660 2 8.962814513635431 5.951266220425237 5.736866430984185 -7 -8 -6
709 2 7.440745733437506 7.802562639372079 10.028296218213034 14 14 13
428 2 6.649376083093674 5.653614748106039 8.674764477486526 0 7 -4
495 2 7.3397233092356755 6.361742143902211 8.194788178006576 8 7 -23
305 2 6.180545189966545 5.968374475574192 7.677571494239291 0 -1 -17
172 1 8.41996863121982 5.524522647423546 6.532070012836293 -10 8 -8
178 1 5.655858906518518 6.954523278866335 5.843396647157113 -8 6 -5
240 2 8.881972699792314 6.597237886349346 7.393200295297003 -11 9 6
362 2 9.653742454103787 7.205113372869853 7.2592417196125485 14 -4 10
306 2 5.149330270512476 7.536314131338457 9.094671800143484 -5 -8 -9
273 2 8.01498016213513 5.552072110361167 5.331640201575634 -17 10 -1
609 2 5.071057777964546 8.304032848098196 7.365060182984558 -1 6 -8
144 1 8.431023218552093 8.08549421027795 8.921470148736914 -2 -1 6
487 2 8.861847414027313 8.655472811171453 7.263881678350529 -11 -12 13
517 2 7.5863638777920634 7.676953737831162 7.577651259658871 -11 -6 6
489 2 8.197457435983269 7.1188119013330855 9.813733763627502 3 -5 1
339 2 8.77034187611727 8.461702012543501 5.211820945689527 -3 -8 -3
371 2 9.158556979049482 7.7523386628249495 9.390895763561893 -2 -2 9
315 2 9.271035526719869 7.543094686662197 8.3873553430835 -9 14 4
53 1 9.945642729654887 9.468965662547244 7.42260349223588 -22 8 -1
391 2 6.06887533229223 8.577329052070754 6.964108251552013 -2 -20 16
127 1 7.219397582210188 5.825038582074964 7.449131599533351 -8 8 -10
179 1 6.3274998729773815 7.609036626819985 7.455597521859083 3 -11 -6
643 2 8.618942903947927 9.258477408523698 8.537536341277193 2 -1 2
607 2 7.755772268708406 8.696257589380245 7.392627002902423 10 -19 -5
507 2 6.061754661510204 9.339380233189425 7.81476022732781 7 8 -3
635 2 7.638915983811993 9.510019361689366 8.944828311619705 6 -10 2
401 2 6.6100596863415575 5.857736376685794 9.754090795921828 5 -1 4
628 2 8.612420380209342 9.588645832796672 7.045114110649456 26 -3 6
271 2 7.829570361973236 9.176176802656753 5.149831541890183 2 -11 6
615 2 7.511776105564767 6.971403563907867 5.341539508544818 10 -2 -1
512 2 8.933367392905295 9.544406905850002 5.4845932222114095 18 3 -7
519 2 6.812145615791092 8.425347340531697 7.812118046766352 11 13 6
459 2 5.374880642961742 9.955197826930386 8.26893307481265 3 5 -10
670 2 9.128854845772791 5.402200080451175 8.665517116187418 14 3 3
374 2 8.232814550486276 7.1231391897976 8.075741782983362 2 7 -3
63 1 6.653348054518894 6.519176340506892 9.060225722125315 -5 9 -14
697 2 8.003689160239915 5.211407147823175 8.48581913968204 -13 1 -1
402 2 9.104290829619366 6.505589873638337 9.116144073589021 0 5 7
700 2 8.149001522915167 6.302380251758322 9.026250839473631 -11 0 -2
261 2 6.234745796413802 7.892577611407573 8.758138973594004 -12 27 -10
385 2 7.577170639940257 8.603706803112647 8.69533438286953 1 15 -4
444 2 9.40953312055652 5.353981521516202 6.750623137399271 8 -4 0
320 2 10.044871616523018 9.755525043125544 9.501927731839242 -23 3 -10
341 2 6.748482964754965 8.528096259277014 9.531503990606168 -6 6 -10
665 2 7.1576737392479926 7.445576224184274 8.628324261737014 -7 -9 -3
610 2 7.335554555038582 6.4921262594682565 9.97080874101935 0 -10 -1
542 2 8.06330001035978 8.723593253936993 9.779262741068397 16 1 5
554 2 8.25991161800204 7.124898737263953 6.261468318274366 -18 8 -3
484 2 9.472342106847911 8.702601345467977 8.176120114673655 9 -9 23
135 1 9.570315359621405 8.760797238167742 9.313494320566356 -3 -4 0
190 1 5.809475765695222 5.375559327521929 5.696839053189064 -3 -2 -2
72 1 6.434583146587081 9.610666270112379 8.822003225952407 -5 -9 0
549 2 7.062567011446788 9.504270745030007 9.849229049625006 6 -8 4
432 2 10.036326443642572 8.18931482854485 7.277487467712087 0 -14 14
506 2 7.274061834158722 5.243148726642019 6.443986549719137 4 14 -4
714 2 6.61374248958541 7.265636911356529 9.753769257460803 1 1 1
236 2 7.172801201114176 9.37121505071251 7.957133230383093 23 -16 4
277 2 5.64503901697854 6.122560190808261 9.834802842162029 5 -1 2
601 2 6.84553613063501 9.726924380641979 6.018447914781843 -14 -17 9
57 1 8.323503253192136 7.613249791242173 5.464730929019822 -5 11 7
690 2 9.960631958546065 9.824357278217654 5.4994529204757345 -5 19 1
140 1 8.063584789442098 9.792657849685998 8.012320358780716 4 -5 -1
648 2 10.017269526642014 9.74451149368025 8.367100305244442 6 4 -5
310 2 9.559367297717637 5.069530637767877 5.403502440632588 -2 0 3

Velocities

546 0.40562037152232044 -3.16401235447296 0.12464530037071676
483 1.1846660780910334 -0.7932336844431788 -0.7022423915243824
301 -1.251572226640913 0.8328003061427286 0.7330434215759161
136 3.3908708332328357 1.2786760840064622 1.246773780393123
551 -0.973571073462297 -1.0328675652285977 1.070216964073861
112 -0.162914798167185 0.0034308709510315976 1.3852521569475622
597 0.16733485832808734 2.2932667388055523 0.39317213011706054
333 0.12733391500025906 -2.4304817100797753 -0.1298557437542884
652 -2.9885376527949132 -0.9688245295274992 1.4943800467690331
434 -1.499316749000842 -1.580068878658914 -2.1913766731473086
244 0.4511708453169699 1.588750324964442 -0.876676509077253
1 -0.1236378028509928 -2.323525169964143 -0.5755037301182975
247 1.3687933807215988 0.8752167956659139 2.1975622610691388
346 -2.1772898137408125 0.17966370527141046 -0.20565063094185346
450 0.44157216861356513 -0.6388587649884414 2.5480980065202776
439 -1.4913419400916672 0.7521307906420216 -1.000859820512318
608 0.6206429524140855 0.8241095720614926 -0.8827264177187456
651 1.9583538900957804 0.5513983136283457 1.778061480414712
703 -0.45337711318433443 1.4359788845179053 1.5137298746781453
502 -0.8135697616162167 -0.6879553938674127 -0.03749207114955086
87 -1.1354612345825583 -0.3263758441809183 -0.08184485195690523
393 -1.3143837166176768 0.7093947525622678 2.3525400031014976
317 0.3239634880334625 -1.1087445269983958 2.328457910583845
384 1.1573642156581048 0.19278450773010555 -0.14271156043573457
202 0.836979038325204 -0.6788179700575493 1.3471952173753632
161 -1.5137057716233828 1.1691680173734156 1.6382607281239483
145 0.5520914895830092 1.3177306467769534 -1.0619919329542427
438 -2.0818113404698892 -1.938341690525602 -0.6653092861603236
218 -0.724001507259009 -2.778033542005047 0.2309392291341451
286 -0.9235163484629667 -1.3617762213272553 -1.8863265208057922
368 1.7568503062907976 1.0373550682896993 2.1471202303720482
281 0.5432455746905116 -0.8160695217987846 0.8213264055445341
583 -1.4409343872936964 1.526440774371383 2.3363617274535406
229 1.5496225897175242 2.7053869984324574 0.15379958993674944
347 0.3451752767489036 -0.4152166115759437 -2.024452809439617
427 -1.2987075297324657 -2.103603445013572 -0.9803830530235534
600 -2.05699271289911 -0.31462296988269856 -0.04627860210697454
96 1.6056489690767501 -0.5870307533948461 0.05967533023694326
325 -0.9865465779500251 0.15234075123370472 -0.7509511428086311
194 1.0639620627332929 0.5337383026031297 -0.8612451594234081
36 -2.490644670480373 -0.40899555326851944 0.6847555951549517
155 0.12457878617841886 1.9810645710736867 -0.6328619133559962
159 0.8258460509442214 -0.823491171291622 -1.0275594196301694
645 1.1944928532834869 1.8310195621149188 0.4321615567437493
209 -2.829705617350198 0.7793641107026053 -0.15782931695522134
303 -0.7600316149896377 1.5797671146763155 2.0781831086714533
114 1.3362213374668692 0.03116855405770183 1.1380321021282487
193 -1.0625885589611093 -2.134264314080677 -2.371604278749823
146 0.5980849778857963 0.6851619332949554 0.38710967400253765
99 1.9322482674433075 1.5512252030111056 -0.995470595930071
307 3.372713321392554 -0.4592597188612705 1.2799355006077806
336 0.18554928961299608 0.17531145128626782 -1.497358601586253
156 -2.0409910661574946 -2.001921191940927 -1.0354212278664814
95 -0.8102492204038492 0.48650574611143804 0.3880767228837989
478 -2.081738393563554 0.19062989265144756 2.0859702205570816
535 -0.17835206853922628 0.6832036936607476 0.7549139760188719
580 -0.4701772800132404 -1.1884133566132395 -1.2886513806750401
451 1.630730029198571 -0.3443308771804239 -0.24919209594904682
119 0.4328660001864315 -0.7632244023755516 0.4736883722937854
230 0.9750871687677033 0.26269741795784274 2.4802902277871417
533 1.0161400587883307 -0.8178804997737258 0.9034642898924181
233 -2.7655085589744317 -0.05044955736019113 -0.13227189929665822
694 0.04783037136451548 -1.1070527722210242 1.0681733544345389
293 0.5226943646872722 1.8634662711002363 1.2233086588725268
264 2.420042721608011 0.6794587137225072 0.12106962262868434
164 -0.751063272485049 0.8796933778956103 -0.643019544468235
382 -0.5600547276352514 2.585089720489821 0.831322580677291
51 -0.010695375974283227 0.9945802400373142 -0.6660321254223173
545 0.9973899006497214 -1.5945651307796889 -0.6326844809742189
321 0.5601412315983646 0.654347820053482 1.4038031722991635
475 0.03394062004014753 0.017992809050818324 -1.3158653410259302
241 1.2428211347351563 -2.455612836962289 -0.8761482522443153
183 -0.32965823057047794 -0.04400735009704538 0.1227990434080089
255 0.003582608038886563 1.865216794216376 1.6257500506348985
417 1.4507867129512113 1.2049448339174933 0.40126636504768015
683 -0.30505103199349676 -1.360197033285373 -1.2773447424403728
280 -2.1419821416103146 -0.20285879803274118 -1.973936307703121
124 -0.23485732086173064 0.08315196736259609 -0.6231407057850358
400 -1.353412586326658 0.36321152874894 1.1680882150286702
326 -2.213294480256005 1.4032367087463857 -1.062371201181095
695 -1.994918267895824 1.9859972381120006 -1.2456180947027773
334 -1.3494671444733 -0.42579245191432613 0.7761569042562205
575 -1.2267830601062435 0.9562345566774962 3.103034646264985
436 1.2506314138327475 0.9735009856520552 -0.8011822680345806
582 -0.3839914981551577 2.1300261684307285 0.2946706009342627
589 -0.8476783020594227 -0.22893795247440524 -1.665998731561381
291 -2.022537415345245 2.5647312839982157 -0.8345928800746426
242 0.4097947590232293 1.4231170363520147 -1.2649720948745395
470 -0.3181660722818593 -0.05299148068336918 2.283904441541174
237 1.005345540363403 0.7219080491066542 2.065508680298119
69 0.9091608068553223 0.14302948278396543 3.731400709180621
30 -0.8824743214752928 0.4795852726715045 0.5801321447742768
204 1.4915143530459294 2.327690561709493 -0.9206310185353107
361 1.0317218496375369 -2.1331041013695784 -0.16259329872766717
661 -0.40419718416912565 -1.0332032107610682 -0.08651168224323115
633 0.7607089102797524 -2.575267448955985 0.7399809870407081
574 0.5032394617557097 -2.02057321603321 0.10600293198382825
364 4.287554188805063 0.28439160056854557 0.1238627384798832
45 0.3775421375667247 -0.5210063225202731 -2.5369172607217996
92 -1.7904035333753827 -3.528491733396983 -2.876277561876903
338 -0.4527040131435705 -1.6327149269409509 2.1535738660931916
587 -0.696339280285911 -0.24691898500585804 -1.5969236891015224
691 -0.9256928597385081 0.053138729488384516 1.7643778941603452
148 -1.0537468182098046 1.8106427749049103 0.05262012997723195
578 0.23796258748927682 0.4611650264329374 1.5495003891309003
110 -0.9709138469710037 0.06116661543521022 1.4644463766053868
180 -0.46239068822979085 -0.030044100563173536 1.267710257530711
523 -1.3169930058497004 -0.007704414781370626 -1.1833295329028553
416 -2.261736503831361 -0.8150905850269545 -0.4542253830138718
225 0.5975087786230712 1.0053268545435337 -0.0697052374583431
154 1.0367010725969434 1.4750147121925352 0.7749422121734247
522 -0.9511772439936756 2.868002328232205 0.6897004714746509
75 1.1744485552422264 0.8196251853586316 -1.7920048877852675
626 1.4144956498576886 3.2009022796120923 -0.8015294566018993
199 -2.063263561300205 0.8827946431044893 0.16484878610302647
37 -0.3046851728836954 -4.818376690250054 -0.6480291317791909
109 -0.04905532542875345 1.6383430036573925 -1.1760510691156643
571 -2.2357277858209765 -0.06116979230941849 0.08211459686395305
699 0.21764493478874156 -0.11330136126262864 -0.9135969368307227
216 0.2363221809873823 1.294474943408345 -3.217006992249773
710 -0.5880515918916452 0.6536821337430037 -0.7555233112683724
185 0.17229749297308844 0.030805294658968037 -0.3274225501401246
117 -0.5360949122608655 0.13188468620742938 -0.68606558383209
139 -1.6246575986283913 -0.7568240854749282 -4.1596780340096
500 -0.24222731662362787 -0.056900421195137746 -1.250300020835213
653 -1.7738958609241042 -0.2838410036211757 -0.2539824428149066
340 0.769574115382388 -2.2469699697848333 -0.29380435244168324
497 1.084008827962269 -1.4266393814968061 -0.13388255369119315
10 0.34752418681360825 -0.9021520036275599 0.2826743053514179
504 1.0988142104516543 0.9127958394751169 0.7377858590661289
50 -1.0242811725894414 -0.6576098344047216 0.6706143056468733
437 0.5367401588467658 -0.2505927114308455 2.227553511214249
479 -1.614741918912605 0.7293313364606536 1.296927730978903
550 -0.46712104723645104 -0.13983874400977173 1.016177411437986
143 -1.6738261376671217 -1.112491068089305 -1.7189928336826812
516 -1.8906594278618045 -1.0971146613820335 0.12354428867296015
83 -0.10408826869858864 -0.31365212981001955 0.5023674954179179
527 0.33577284188504564 -0.59230675791848 -0.9268346574523514
157 0.9045192493695119 0.3805373997050515 0.4268265653749475
530 -2.712140674065698 -0.6992953207331434 0.20624445119231172
219 0.05511916340093458 -1.32685112894198 -1.127652785014861
493 0.44212793683231383 0.4309583121330479 -2.041579671969969
189 1.3034177892088605 -2.8923656291759046 0.456802604201709
58 0.22750032602629183 -1.856038379837293 -0.132291830528943
121 1.7661453595251997 -0.4299558733519589 0.017390231798229294
62 -0.9461108796599588 -0.8610325151947009 -0.1340692745776674
158 0.6970504605681279 1.4140715196229168 -1.5410090928669244
46 2.723326919969551 0.9033555472685248 -0.3643651968253105
287 0.55416189145615 1.4746666226232432 -1.388865697720004
94 -0.6869128807434378 0.22141411807323969 -0.8008534737579054
396 0.55758271207536 1.6606714301772838 0.4510013980001477
679 0.11983924847788364 1.559872792673397 1.260746607863206
511 -0.35897276834240455 -0.5722311290745742 2.5666029992127055
632 0.21135715958279291 0.374942160050944 0.26647429494373387
12 -0.44245448399425635 1.728457786711274 -2.308614222781601
170 -1.429427684027988 1.08728598626148 -0.8334412973142646
162 -0.4724071810823772 2.650613421724748 -0.6176899259166387
220 1.245994482185938 0.29584538305348457 0.23687361059666914
309 1.950117206087567 -0.3116561810444783 0.01937447490740883
108 -0.978045663247498 1.2550910043524681 1.3102221862149217
702 0.07179708048727977 0.19720647994902896 0.7859167578076928
618 -2.455060071575447 0.44203339228001914 0.22860104104071946
392 1.1428763098389432 -0.5404215230707767 -1.6011468242112439
404 2.264222832058567 -1.8261277480115279 -0.776055800286236
463 0.8828463352781585 1.4258608491785039 1.1629820197507543
685 -0.982628700902369 1.3208441442138508 0.24248058765355315
558 0.6970986290911836 -0.010749138397877092 -1.1637458566370762
509 -0.6150143746184495 -0.270484906107821 0.6499554336981547
32 -0.2731715982270088 1.812817975214604 2.2880976444106347
625 1.889843139687148 0.7726902294557215 1.3895075063562459
408 -0.24852449728005843 -1.034174801527837 0.671913205207191
35 -0.2518907908049682 -0.9149509320855737 -0.6008746318684991
498 1.8036296895981907 -1.0567845616250158 0.6321509639572297
448 0.9580047991227358 -2.152008596239469 1.3620645649262788
658 0.766799643854719 1.0190995017988012 -1.2563910165646366
520 -1.6191522420504194 -2.005568412998874 0.30954282581565956
221 3.9372952216200807 -2.0886518111839534 0.42986289493804475
429 1.69015586933678 1.2686475396412196 -1.4138744816378916
265 -1.7802917095767232 1.416415518558713 1.0072537416483416
223 0.956521278094093 0.19259242918275093 0.9428257290634287
531 -0.32899718881760054 1.0067652954873723 -0.21548493820701173
425 -1.0421486373556204 1.77362298500713 -0.014809492980516977
332 -2.7292716366178533 -0.24243337681964794 -1.2972453773925035
239 -1.2402593395995558 0.05015514362792091 -2.5057743570840407
650 -0.7396921824135748 -2.046149486428533 0.3980015949107263
370 0.6946092059258456 -1.3560676863086922 -0.470318248202536
666 1.786277951994988 0.8018087567294195 1.6950231307429422
354 0.8576723660230855 2.121671242542014 1.2207252827104738
203 -0.3504593797598981 1.0078677501630569 -1.8692789913698689
91 1.7640883575281443 0.41173053716410185 -2.1690675338736556
254 1.7855942638668068 0.36791370531166134 1.760739362117932
295 1.2412943783817871 1.19670171488402 4.243621543834741
268 -1.1579536065197735 0.900698603277449 -1.0712881732152733
379 0.07298935679168167 -0.05048285944867176 1.276668054530947
713 0.44116868594134273 -0.5359057085516309 -0.8562029555734574
360 -1.8845986010539193 0.29324782245177855 -0.1378800160810402
355 -0.15802880598529176 -1.1327340562804773 -0.3919226980668117
318 -0.9804497861499937 -0.313293260835353 -0.9896576260375904
399 1.124396629559687 -0.7436831709407525 0.05492397643852434
577 1.9663617427202391 -2.5910001596321703 0.10556942676420038
638 -0.7124251130758569 0.29176220027478394 0.6083792530916827
350 0.1423167640023177 0.0809736458312022 1.1486269607377007
165 -1.89827412008026 -0.742526461208364 0.07479633483848064
192 -1.8180832860496867 0.7042405753898372 -0.21674931636812894
149 -1.989289123997683 -0.5097601350596811 -0.6589476384549706
107 0.20278137023089451 -0.629989074076499 -1.9079833684186414
704 0.17857424364633112 -0.06066192366437082 -2.2732535898117034
686 -0.1796702169371034 0.5746682179015837 -1.2253309040352616
278 0.16655104292274317 -3.777514633005371 -1.6721925937757454
568 -0.7433161291417714 -2.571768581793381 0.28792045139170086
260 -0.5844578331770476 -2.4837819540006953 0.07442661517648481
232 -0.5464427194779141 -2.667700906498365 0.5800367118484062
88 0.26279171823369696 -1.0412411959894488 0.8186572171207359
552 1.2109662306893698 1.866666107113344 0.7032472084722527
672 0.14097614882856513 1.6221540626876776 -1.9716672602902288
412 1.1170273810921902 -0.878277712385068 -1.285276860132875
649 0.5040915991443813 2.2574402443552204 0.17335837967543105
466 -0.06812812373038553 -0.760598864662622 2.3034649572533006
375 1.6557657255189722 0.5547027981882313 0.768529219276374
570 0.028251281444654143 -1.0888397180205027 0.2466361309478271
367 -0.0040996614104453575 0.24868518309134216 1.5202383184464903
620 1.8304320819548074 -1.1645395751820584 -3.128741926000089
462 1.7689989479493917 -0.6031621032497154 -1.6346187381892248
499 -1.2459745238661473 -1.1395524989394894 1.5727019342744815
175 -0.6516517144460227 -0.6824275978603315 -0.29280513373445055
141 -0.9926178403870151 3.317052554229277 -1.0930337480141548
186 -1.5982384028270424 -0.6089489522033582 -1.1890792541190762
510 1.3355906448074544 3.027851032137614 -0.2525241698415343
671 -0.334985301884619 0.24358294173691056 -0.5584463943245612
214 -1.4260826435724283 -0.8285964699748917 0.6362642547247902
270 0.31451157125679263 1.9309276554122112 1.8271257552196303
250 2.8129373813974596 1.164054831964724 0.02529277103884984
664 -0.3817008744687987 2.0255733891817362 -1.6561897955230365
585 -0.03544963004607986 1.9405820707144288 0.8719429744058497
386 0.7022312521197261 -0.5718034363832042 -1.4398967671141594
372 -1.3274191543755398 1.689588257653435 -1.1080575014319523
369 -1.3617254587640841 -0.5746398300680471 -2.74441846126325
482 -1.4510769810512927 -0.8748985503931244 0.5052562173102855
698 -1.0410250025813352 -0.9493808706731431 0.30313791614684965
253 0.46070159025737756 0.0395700072380718 1.053738912182953
231 1.0691377606049266 0.841781960688509 -1.0708255864784426
452 1.3676985315727141 0.31227058446722944 1.8815041089905067
313 -3.4908376441538755 -0.29429573833955225 -2.145078831428311
245 -1.4397067752691313 1.540447988829044 0.03506727117144765
707 -0.39682146673270924 0.2512506341152642 1.8755493141264643
276 0.6647955737502909 -0.5179331923016486 -0.23856587201707932
431 2.89689882619972 -0.20670657449130758 -1.8397966430680508
678 -1.890551258261703 1.3285525863782508 -1.9827675804664806
3 0.4190906976988259 -4.481343555407139 -0.6801207440754268
263 1.7343877355366086 -0.25753170228724526 0.9573774410351175
518 -2.1465863278161526 -0.23824231387122377 -2.730432433705492
642 -0.47682459383067094 2.892008343178146 -0.4277344423330427
228 -1.858913862615832 1.7736008863035277 -0.7363386532425712
539 -0.0034420610872856875 0.5070222068015692 1.649188713655562
377 0.6317845836295535 1.3951053046860322 2.905722145419669
104 -0.5679322844045572 -0.19140682041751575 2.6773917178161617
13 -0.7469995855972452 -1.76259519028782 1.0580297498990716
356 1.2301713231738656 1.6504088535697332 -1.258300261191571
298 -1.5999384371825536 -1.4053177001218127 -1.9030834832878543
541 0.5721712475925278 -2.0360973272993474 -1.1299145325184519
34 0.43571254738648885 -3.3050733146550995 0.27890480678187013
133 3.7040124575649975 1.3813678404496599 0.8706174387026238
349 1.3445612784151548 0.5545770984602236 -0.41397351034579855
433 -1.0796700052526993 1.2338344332009477 -0.3624322639861828
588 2.2860350808156014 -1.328676825541154 1.4826311321217498
23 0.2970587399880009 0.5443711138507982 0.21998730265096908
292 -0.15253940478394643 0.8895571315066488 0.5739720438877929
687 -0.11186404608898588 2.752369407737407 -0.9236196054045545
426 1.7646918954667201 -0.8997281037366953 -2.2359649430316035
712 0.4389203320900454 0.5831612587301964 0.07279592410047916
669 1.2067004887048025 -0.3190645615346049 1.0694637749047213
316 -1.2708751105647997 -0.6835474515397337 0.29387054275425284
472 -0.8523957884683674 1.190553315470664 0.7323833193759246
151 -1.2565740348324175 -0.5828968462587079 0.2830538377002214
345 1.2669624534124622 -0.545862568047351 1.0965974085350032
592 -0.831197642742357 0.5167288104194341 0.835606990849374
689 -0.4499988716859701 -0.8787008887108877 -1.3678254877609375
701 1.2314955001234777 0.972108920838908 0.5975001812112966
76 -0.9234118526290519 -1.129496637500749 -0.07299009754681757
59 -1.887216772766307 -0.4570152071225988 1.2573688572776895
358 -0.40556604097669596 -1.4039822618966624 -0.611178016026243
674 -1.1559112848945443 0.7548210295186377 1.8806487558297862
536 -0.374716184702308 1.9813661788672616 -0.19461039926428572
390 2.810265948272274 -0.643533140894529 3.066904291964857
11 -0.4695604658543943 -0.933792565200702 1.0406880205130649
622 -1.1281110292170806 -0.05656268222139171 -1.5386168316084559
604 -0.2302133148123062 -0.43666586408458974 -2.1716482571588838
67 -0.6268866407513861 0.2894011124925034 -3.523971317816161
424 -1.8445798864513367 1.3742357948337751 -0.26438666823302753
602 0.5369588808227475 -1.1848862361010772 1.1628836168651135
258 -0.2132859833248497 0.9529886353461214 0.1546123940182742
226 1.0500933974570412 -1.0282027825071303 -1.8986505056338134
86 -0.6853882149916068 -0.09635643832550853 1.6966615130816614
31 -0.15797153401768174 -0.1673241457705991 0.4701583338664763
544 -0.3891566596873542 0.5927957386309074 1.54267521426392
521 -0.2618720502848983 -0.8491728673809634 2.064210188241296
85 0.3705466248627505 -0.09600006388021766 -0.3275558334717929
706 1.6872338305258572 0.9899744970064881 -0.5757425448106769
447 -0.459139886048152 -2.201021960098462 0.23185190012645196
222 0.011361952396103134 1.2230782180680202 -2.21611887339434
39 1.1509730105520537 0.08569436834701057 -0.24155894831097416
342 -0.9488661997559563 0.347264096085447 -0.018656955052266465
460 1.7423495537974119 -1.795882880834778 -0.4501233716152054
212 -0.6171652914578645 -2.571594183218071 -1.1799168847871853
445 -0.12215629124089904 1.7849038316021664 0.3901548928268867
373 -2.0856862962716254 1.7254272026647535 -0.27809633878346507
596 1.974831555910362 1.1070420606257465 1.4700974838910081
153 -2.554083481395254 1.3544845956475773 -1.6668778229228904
381 0.5647926770963714 -1.070537622179612 -1.1864760706091717
716 0.946402897143878 -1.8256484082397917 -1.4159311435336444
251 0.8502185205599044 -0.21207494576348612 -2.0688559456591835
6 -0.07147914749250367 -0.013027174981456056 -1.8550663206902338
81 0.6229224673516458 -0.7634619399951154 -0.8621200569416813
677 -1.9270188798514756 -1.8357161303767195 -1.3520698595805114
71 0.32530440634504987 0.18758864718348237 1.8704708281291436
27 1.3441346762101067 -2.4977193037528242 1.0166015007964175
89 0.6298089675068227 1.3516164165106803 -1.5068870862771022
163 -2.263320684858461 1.398975781510402 -2.2059643067841215
563 0.37561877614455486 -1.0009138971879736 1.5896553300396945
532 0.3902071420143233 -1.9985592965034806 -0.10453639377732553
525 -2.197382465397224 -1.7498979664833547 -0.12403460324376787
167 1.7470444768703925 1.0772193005537616 0.4219888063498047
201 -0.971448347553548 1.0569082759586728 -1.5899218118533258
696 0.8149044095946779 -0.6262614245222644 0.9624961519000091
41 0.7037471518661769 0.09003595280579035 1.07315302737473
274 -1.7167475072732075 2.5463053375969498 0.30639645017138073
590 1.0496912680015462 -0.08163432559545768 0.33142969729744237
217 0.7501285527962946 -1.0002049926152812 1.2235012278601605
503 0.45707458863847245 -0.3386133432476563 -0.3264628171446605
120 -0.40148092690929743 -1.335685904304576 0.8393497886788623
598 1.2049982803576644 0.6683939254379941 1.4636635173213313
116 -0.9790165590706903 0.8965914047826623 0.23999734492477845
637 -0.6157838788938442 -1.398154427132184 0.932494054318891
195 0.7836986310752626 0.6652819412403992 -0.49781989137438326
70 -1.0354089745535289 -0.09757414998380966 0.7933339806706148
630 0.9742188312562803 -1.011992049587271 1.3343976271683773
561 -1.8153894844398373 -1.6578551577573495 0.802493595030394
256 2.4708037576699082 0.3954763824650261 0.871947974333331
359 -0.6377222005559282 -1.5520717835931226 -0.19771465521644502
611 1.8487894886419123 -0.4587539196535405 1.354549224954555
282 1.61369284732774 1.1104251582565834 2.0139134879700666
126 -0.4198642436998648 1.0751662910668274 1.9886607196856434
406 -0.29917647705908945 0.972606028619209 -0.7747920559357642
631 -2.2954372199896884 2.315583347337597 -0.2598202691838609
684 -1.0956309726063078 -3.0238857710069604 3.531973355139794
641 -0.5903935287915987 -3.138216767509657 -0.4782223506922792
299 -2.814491009932306 -0.6159757149200162 2.8008846134596537
662 -1.339798809074293 0.2215876797113296 1.070933423056771
468 1.9551919536953424 -0.9229334331584348 -0.2807585392751046
469 -1.2857115827572783 0.48586126250695433 3.2492030887738905
584 0.4369950616537291 -0.21025318669731724 -0.10410806609380169
595 0.729286643548889 -0.7588170597854277 -0.8462332908271684
215 0.06106645360623005 0.17996867543943196 -0.5239860117677362
15 -1.172176394867176 -0.8717529394962196 -0.3122630253960519
415 0.40573526613677807 -1.180394064713049 1.4671353064435673
573 1.0822317123296699 -0.05430189453391309 2.3021780642204908
335 1.601515186050558 -1.535643667782966 -1.2586184977320205
297 -0.755451984172688 -0.12048401185795594 -0.44838236527722974
419 1.8773274053274982 -0.9192492303777827 2.4037091788963547
605 0.48905536773544606 -0.8319473174094151 -1.0487918413376838
102 -1.0873581473154592 -0.8075637427606276 -0.45105803947900386
100 -2.006837786439977 0.6608470677326012 2.8465204290379944
537 -1.0227173966831533 1.5606845038826727 -0.08122054487282887
394 -1.293819868160339 -0.42425276558010805 0.4981622844386929
668 -0.16106254402490422 -0.4449798030093308 2.7887588040118487
344 1.6757229226523227 0.40712390075539984 2.4343723260130354
676 -2.479500321722337 -1.7322624977706256 -1.24238731256449
174 -0.05842018958374998 0.20903211713932182 0.2691729703422596
47 3.4682939689476906 0.589085555989896 1.2435189115533283
98 1.2679683711189644 -0.4295805810452647 2.220736201107254
654 1.1349935966578812 2.1826830988085124 -1.2534626429214133
208 -1.4904938472380194 -2.6229953484692765 -1.019944766768637
60 1.8112940418469738 -1.4650907076178765 0.9609840849323474
65 0.2888245743327915 -1.812754071193013 2.2462242686038554
680 -1.022259836654841 1.9714151436708323 -0.2495704238245878
640 0.2342877564005412 1.958427469422394 3.238263247829435
49 -1.714757938724091 0.9752394926342722 -0.9783834970182596
636 1.0546485293368133 -1.7759561618423885 -1.2278963215514136
25 0.41338049421974316 -2.3365010348413517 -1.890189796790986
357 -0.43177473271373096 2.3608030304348935 -0.6032209549992983
559 -0.40368432993928605 0.5541261314759806 0.6729860692686438
246 1.0801822026130374 0.37545679792171793 -0.7921698317021124
548 0.5193355002006697 2.20048305444594 1.4160561967531677
22 -0.5733058634627072 -2.48031448551363 3.144966714627428
473 -1.9332185777259379 1.914948934373067 0.6297052576372723
142 1.1770333066566876 0.335209458357035 -1.0073295048378885
82 -0.5698599480287823 -0.23435576061939822 -0.6431440238397798
614 -0.5785777668619033 2.0268867741415293 -1.3064609675272474
557 -1.9345534863778093 -0.19659043085254801 -0.1925527118615068
130 1.1279472967157207 -0.2878560565962897 -0.7562206313437283
29 -0.08627534843698327 -0.4949609856867502 -1.5518825968451748
529 -1.176498832730338 -2.3490731145975623 1.666182692002678
4 0.04542510439824855 0.18172269465491853 -1.0682455066155045
480 0.44649966466810065 -0.7373622996915057 0.6303462921717826
284 -0.5082281984226769 1.4737883520940578 -0.46545920648333966
378 -1.157117673688215 1.2192152270274677 -0.15079238783409532
422 -2.5464135600317066 2.2096854951891762 0.33004613542941513
312 -1.553749153402889 0.4939768441423745 0.5469735730576242
624 -1.0056355777610289 1.7556311729078928 -1.0579300485431395
61 2.772659980527264 -1.4621762081958052 1.0498791674339985
160 -1.0654445691334875 -0.24194514283551138 -0.317582450865002
621 0.9162890886828405 2.922340089480389 1.33775180107814
328 0.7336514131290306 -0.25306651192834756 2.1550582759784214
603 -1.7977449915265173 -0.3898030174702913 -0.17153232830289022
19 -1.8121625545778757 2.3389009658879583 -0.3369624768788927
26 -0.46036801341298333 0.09478636224754487 -0.80751089017816
329 1.261324019530787 -0.5623716424085055 -2.729849707411406
93 1.72235684181009 -0.32974788390314674 -0.7472340237737948
673 -1.8351298389680488 -0.7391426273062391 4.874712136359675
272 -0.7830194862752275 -1.0345151803612784 2.633431662811394
302 -0.4582363890561859 -0.9522789357751955 1.147117945429994
491 1.3031209806974118 -2.6166180737346463 1.747183225834469
543 -1.103504448700363 1.1824566601632274 1.4789669101779275
207 1.215649367810647 0.9486604264140822 -3.5722218233903793
168 -0.7275749382744664 -2.0636453262401906 -2.383098953146196
198 0.9192888498439945 -0.28301632026663104 0.020532779496583373
227 1.7712639223665942 -1.3150711017428527 0.6383432778790944
64 -1.5569946514595054 -0.01851379756914544 1.8657452877132776
389 -0.8758781318102944 1.0200103821951998 2.0405934701307853
634 0.2001238322887358 0.26066873724824197 0.799977758301827
380 -1.0229711283280916 0.9857066743799175 -2.021126567508571
449 1.4387835237867959 2.4346269821272952 -0.21596615038831213
150 -1.1160328744056587 1.8943727051138048 0.39601168175035584
534 1.369596090266924 0.678750560133976 -2.4663575143816887
538 0.7828641208072175 1.2304599853696079 0.2307286244503295
353 -0.019740973523671976 -0.35472347745090105 -2.281808581065732
28 3.4013133161378404 -2.2587583743016952 -1.7265437651281423
206 -1.6710990175527292 -0.372146185414802 0.07959523499851787
319 1.3755325851382418 1.4371910951653157 1.2406639802584443
655 -1.357068568508119 -1.2475385671840677 0.5631195962306075
285 0.8625190333451381 -0.3460750840366864 2.0183840067016563
579 0.5195345826532316 1.2793900376017266 -2.0401941965430894
252 1.3704142136970645 -0.2781134543209711 -0.8712310427919355
213 -1.0315695059867178 -2.5866940633406967 -1.2008500015708
311 -0.7003423373956176 0.2158035131553219 -2.3809802417233934
52 1.6878535662957366 -1.8276300286844653 1.3139374795017882
152 -0.9811990103833477 -0.24623606048528113 -0.6409120061310228
234 2.3266913801522198 -0.4331452815975233 2.1714790833537227
715 2.8286525258349697 -0.8374674815900708 0.3758811748140754
337 2.453090878642846 -0.493470297430215 -0.04867853745749341
322 -2.4614108710284066 -1.0174607251293297 -2.05177085327841
55 1.331222312186649 2.805936970298349 -0.16754257471728162
269 -0.4972092073309466 1.5690598317854376 -0.443870716189944
613 0.8167195170081014 -1.8088398162078478 2.020938476367
113 -0.5606211638580774 -0.7159645950669521 1.1026322801997148
430 -0.5194699152070112 0.34100806074586526 -0.9643648893028253
656 -1.6544421030771652 0.38063684855981933 -2.1700384369479737
18 0.4385361708819076 -0.8225765876225704 1.3839073979160965
267 -0.8195284648137596 0.11490161969041626 1.026371494172675
289 -0.7510481422007076 0.41522789791126713 1.2120744256265603
681 1.2638358534119725 1.974032752121685 -0.5550318532137951
675 0.3861127371204575 -0.27336927419598855 -1.198646644950375
97 -2.776235830230352 1.7134555449242466 2.0172958971052943
464 -1.3460541813156903 -0.6818902366373091 0.18935075028167328
387 -0.3185935063447268 0.1950905941032289 -0.5258037873782162
44 -0.9079517343807361 0.20804203825857037 0.4510882198873023
376 2.2079618885555603 2.169668717165157 0.14642903611400418
576 0.7024088575649895 -1.4329657735702648 -0.6430428525040899
555 0.19456735133679312 0.6921631699847551 -1.1710794508040696
481 1.8057223124874389 -1.1948489825905497 -3.6853484008705575
103 1.6701795709058131 -2.3296336921217784 -0.2578626405780901
351 -0.2781939169215465 -1.184552010405773 0.6785259604452287
266 2.95208555624003 -2.166785881292221 0.6836929348647346
477 -0.20619991528810652 -0.04360263341381716 1.6210366956180495
177 -0.5429318348437854 -3.3245150165752357 0.6038713847436914
556 -0.9591908720002921 2.635959631352548 -2.0410060614908208
56 -2.239879715723162 3.2438019054655034 0.8972599096164153
629 1.2599507518794344 -0.26584942920176724 0.42940781126810496
562 2.2689829994763175 0.17159665966380172 -1.2886782152909606
90 0.1278992661226995 2.150148372830925 1.0240410843955032
249 1.367680879362484 -1.3400088728641435 -0.4767774631481544
411 1.7136279336623197 -0.11081366002265268 -1.0932237699953786
20 1.4726086935014218 0.7356610192764017 2.233259396815306
169 -0.851413783658518 -1.4406727531300745 2.0625971454409933
115 2.0821810912457206 -0.27577148207472935 -0.0003909485642040677
569 0.5285112118878725 0.3945583260498395 0.4491200424905297
210 -2.165838552590039 0.6243813842720141 0.4903289901638593
441 0.5808682879554935 -0.9996727024189802 -0.9993886622343479
623 -1.0991434443677546 -0.7489571817701018 1.141841067235342
708 -1.2158709781808879 -0.8975732321941562 0.030260590471705772
14 -1.69703443447153 -1.574336917804282 0.4914147080029874
101 0.5107446858116629 -0.8618168105279667 -4.427633251980189
78 0.9918488593391384 -1.3838937464800494 0.7895327537823823
283 -1.8354061465142821 1.29551596477445 -1.6942664875747415
467 0.45330895491443934 -2.7094667141738022 -1.4780489429068193
8 1.1035522988271917 -0.6738119696606735 -0.10293556621116648
572 -1.1275894332510357 -0.6359281643185745 0.9337856198544159
663 1.4802440495333595 0.8830513469141068 -2.8189724747845477
122 1.0059053120439496 0.7378506651913953 -2.9668802738361424
458 0.006641604789949242 0.1146307253988683 -1.719601004222152
105 0.6515760367398227 -0.44170623698586287 -1.5457649921721748
547 2.1935419280642985 -0.8594410647315455 1.1161706159813263
423 -0.5551276174984872 1.2254343317467629 1.4151753785219634
612 -0.25111465539982913 0.372070195094729 0.3950867873679253
38 -0.121236411502779 -0.6921773694429016 0.7715289661864347
43 2.3111787728327124 -0.22642488642260225 -0.1188926454597822
442 -0.7618554502651297 0.3281437379472972 0.33296263339154225
73 -1.5023308722718505 2.089493246168971 -0.028833601571470864
54 0.47641511862903385 -0.5063547881745913 -3.499124202151829
40 -0.054206180989556874 0.33966526366990785 -1.1005492216142554
308 1.0440240337614706 -0.7954816556946759 -1.2869485504518574
599 -0.056064459541790714 1.6639964591736958 2.1702170266954353
488 -0.7672483434989943 0.2662499429936296 -1.510853926735887
200 0.3791884545092013 -0.8664386403425944 0.8951466069525125
131 -1.2428549866995606 -1.1335023968916573 -0.8825263843632594
300 0.8641737078337253 -1.055610008465138 -0.5419497391348143
296 -1.7777160466130788 0.8537008006290667 0.7795425802501262
21 0.11767408687273294 -0.8879595459993439 0.7924192700098819
181 -0.06561275710862803 -1.95089878985679 -0.9059310156296652
366 0.2550273654436837 1.056688543268717 -1.3567682236523342
647 -0.8107376358981881 0.9793806791993974 -0.5797515473813727
659 -0.8252573611664404 -1.1887245595012972 -1.10293956020942
352 -2.0270081715924713 -2.005360675010588 0.7572301284062942
474 1.1053821792514396 2.9160447477623954 -0.9206811843200041
492 0.04078521583006079 -0.34981371396064453 -1.044032059564168
619 -0.09579956347246718 -2.428599810082084 0.07182952657133987
594 -3.004134386320876 1.4957540957744122 -0.9692484240967698
211 2.70128094850413 -0.017174877130697316 1.8695927803020795
524 0.626911379068292 -0.7229882874883119 -0.577374983251991
279 2.217295527059996 1.6836230216142214 -0.06051515081181236
166 0.4484692765962717 0.14937086376075184 -2.0602766436774753
132 -1.4585811574939782 -0.7055057546848162 2.3096304449755602
42 -0.10384025289017682 1.8864335704998352 0.35310754671448413
501 0.38261105410283913 0.5482337006262981 -0.16096896474956984
564 -1.9780607115609155 -3.5495987083661316 -0.8061832738732244
48 -3.195260190337618 -0.7968427189030332 -1.447738946362546
173 -0.48151265891174294 -1.425746419761656 -0.16745062073884076
257 2.307932075071988 1.4116887348464555 1.4986062402014753
581 -1.3200260530623416 -1.5062469573763462 0.41118796246507416
294 0.3635648079884804 -1.961768320331145 -1.69669055320872
515 1.7541013108522823 0.4897783387520523 2.1231414533686013
363 -2.1825254959546347 1.5029574119251068 -0.33873220148852745
606 -1.5716722944296808 -0.1945086203969629 -2.29885463924018
7 0.46868622052499065 1.1140427028594566 2.469729478403094
17 -0.1674672945638522 1.842012816058643 -0.5195318673219175
667 0.2955790114454667 -2.676962529467496 0.4912231488069946
591 0.0587379228230243 -0.4374165183617727 -0.2710102515834363
187 -1.5913951481957493 1.5412967425499573 1.1693004657186534
409 1.425064257777192 -0.27245431296170275 -0.18474550823169825
490 1.7226651993002666 1.383395700718337 0.4978332789189611
134 -1.0906632884019047 -2.0854977616045143 1.5800385802026606
528 1.4500498569379834 0.7467541213248101 1.5796505710498092
692 -0.6602759558775368 0.5785293430170395 0.5875038132042967
275 -0.9029288622602165 0.3089760812415825 1.8125008618587937
125 -1.415316042353923 -1.3639822072617895 0.7027808289867339
111 0.9936022458403811 1.1885047403159508 0.9420480077817002
147 0.15526845965499259 -2.424892247439297 -1.606259401244341
465 0.5670823387456297 1.974454519655709 -3.003060884420786
540 0.9047220627547725 0.07820518910889604 -0.7929607298777743
435 0.6824038890909695 0.86118029023716 -0.7991952942750403
567 0.706570000377427 -1.0330985878182413 1.4214366434062657
682 1.843766925624944 0.37149041105340175 0.4977874806118105
118 1.5221880373773167 0.6309802727653928 0.1016526323886499
397 -0.2992974554520809 2.7135808671953567 0.6384962811378622
508 0.2268059853616509 -0.13716939625093108 -1.735983784599684
405 1.424309150563055 0.7952503224778138 0.1249327002721168
566 0.7626021980978003 -0.13526154991110528 0.46378164276920386
388 -2.098818199462445 0.4458054627915799 2.5115175259652864
9 0.9151626789401653 0.6019085658903128 -2.5185079084751147
486 1.1938683383517272 0.24581416125394975 -0.5933326634754548
84 -2.593646841867752 0.5664414698403742 2.0684034256433823
243 1.888613239339182 2.010179667346477 -2.1476151625560096
403 -1.7749817926667322 0.8823288334683997 0.6677796560590352
68 1.1886780600070657 0.12401295330105515 0.08818931769515337
2 -1.6464613399137247 0.3982725441960307 -2.1069182781288696
323 -2.024079364966486 2.2767643077939117 1.5191836635672828
413 0.002301213736608276 0.5916879893302569 1.6800635136106026
290 -1.690354719783481 -0.5068514604619557 -0.4949785191561671
414 0.10713521328634258 -0.5122771401636746 -1.348090303042405
330 -0.24586197739447774 -0.052514136581035 -2.096470258571249
171 0.37720491516287435 -0.9761367086869311 -0.7588339664584753
182 2.371143657194178 0.05026617621190865 -2.954753813585309
33 1.4892514204931646 -0.9309785305385728 0.15469462667891756
365 -2.1507343065743534 -0.7745756696234711 -1.2244457127165171
644 -2.10901901503752 -0.1376682269187877 0.7784966916239058
457 0.40268317958499644 0.12074391506031348 0.021296705949004496
407 -0.7549674056469596 1.5359748087660152 1.1084406117033456
593 0.4406608628421218 -2.7384821801346115 -1.3802551530658216
455 -0.7587451710388522 0.2508300355298605 -1.1281744458812955
129 0.43035312800642134 0.8391479970539754 -1.180322891893006
476 0.7198258694411049 -2.2130794782714087 -0.53466716814021
496 -1.2725336306616823 -1.3446475351140865 -1.2364652590776104
454 0.7978695787506466 -0.9708410606104624 -1.8882462307548429
123 2.0292981229082923 0.6455628297032591 0.9171823757204473
128 0.8387376332548843 4.134026787910586 -0.085557090429056
421 -0.2880593389234847 -0.43148433707636064 0.09033652870085548
304 -2.8250296978676723 2.2470454716369344 -0.6791198090513043
288 -1.3616102963874976 0.9926351004923376 -1.9732442023950159
560 0.5794616366714551 -0.11633291584534411 -0.07952260790406825
505 0.3800798414299077 3.19997835053289 0.8248518480850837
5 -0.013421122850531538 -1.5158683976798455 0.45858656876925985
80 2.147420055644214 -0.6368305954867046 -0.757812574322423
196 3.242822569915681 1.6667178687680813 -0.38878868486115
197 1.3233681660311887 -0.7659226042605364 0.5507521061988461
586 -1.3564950674725895 2.0340097040371075 -1.1377799492684677
514 -1.3499926821660675 0.527182364690719 -1.7588613984626362
191 0.7058091067394845 -0.13787587052712996 2.735814999535383
440 -0.9723361954514742 -0.9960627265165809 -1.1000624770356944
314 0.3104719057801001 -0.2744573598678258 -1.7994929506654294
410 -0.1704691267605695 -0.3303807829612104 0.6401927215259454
395 -0.3092253446416353 1.8882894625997704 -1.5592887121707615
248 2.1088526702168235 2.3565524003656666 -0.25155241441954657
456 0.1803121450935672 -0.5833381613354922 -1.6258576221891532
188 -1.2402135261008034 0.8627624107121897 0.45730765269687984
398 -0.6114504560122732 1.7050597142779358 2.338421148302899
383 2.2990961167128803 -0.6089937029634782 0.028882087469729676
138 -0.019582229976774855 -2.705181776463189 -1.2796023039269093
16 1.7057702945614295 0.5890367225607468 -0.9811578053887795
526 0.5028936606876445 1.4006244736309112 2.3441003948080557
238 1.1382160610879888 0.4550434329998428 2.5551407510844277
471 -0.36276716947494864 1.6379500315447153 0.5096570775934173
418 -0.7400246445123285 -0.541723287687972 -1.7072117193094993
259 -0.2015230649587079 -0.2530062737121355 -1.9640732204669185
331 0.32942903691575637 -1.3629959102183595 2.0496044146978245
324 -0.3033274662769133 -0.39357618810872996 -0.11181938168091365
420 -0.24567306212882156 1.229480075118522 0.5822561043890946
446 4.433551819861292 -2.6243157489748703 1.248226455541927
137 -1.5962874925466521 0.7695454827976841 0.8014163541633236
235 0.5820295229779235 -0.805692276369896 0.5285887266975204
657 2.119400272857865 -0.8429358777992261 -0.13956134766365563
639 -0.7446231671050643 1.4448735561853399 3.424288267567824
66 -2.076812522823348 1.2821456215798739 1.7203414602730842
616 -3.6892407086966106 -2.81325453959289 -1.1245297259850788
24 -1.0793585915849677 -0.9786479867352236 -1.494419634085298
343 0.9048851799628076 0.5514975657039602 0.2071969951085801
327 1.4876225179249007 0.3537866797958189 -0.8806781060875064
693 -0.4119389031412101 -0.2643581957763886 2.071491438779921
262 -0.1696544372949688 0.5140962193732528 -0.6265543461690201
205 -0.9394275783856157 -0.42273792313043324 -1.563418038708409
513 1.4695281174508006 0.09598054212863981 -1.9677094871285474
453 -1.1271571893410544 -0.42286985374408975 0.2659715275007145
461 2.5982914453503807 0.8173889495039931 -1.9094726083394278
74 -0.27796554300937093 -2.1611711496690273 3.128221427586811
77 -0.5829178270614974 -0.8912141893185198 -1.920872366848631
79 0.6746472607223308 2.197546509037467 0.9240888654628414
494 -0.7580282833870602 -2.239474420245296 0.580457195613431
348 0.36028375941224255 -0.8471258496192432 -0.8949839250133118
553 0.9372885260080313 1.6165304347610074 0.09776354353276435
184 0.23018527319446563 2.414084308365045 1.035166348822753
646 -0.4079115693540315 2.579767630166385 2.2806035429719356
688 -1.2919099469123771 0.5561944226580615 -0.43786763828815
485 1.1036818608795114 3.411503166604929 -0.8103273793894219
711 -0.7032839657523515 1.3157557017670158 -1.3714929534833362
705 -1.0620804152000984 -1.287643895631865 -0.49483748260118937
627 -1.8800654743089695 -0.4740079852747079 -1.3546713002856288
617 0.7902005203002751 1.0123099536207567 2.317952402876245
176 2.386914780681564 -0.677340194842742 -0.8901549919249104
224 -1.984626202814932 0.4800898797316225 -1.8954449829406956
565 0.864662504573137 1.5864353761711512 -2.2610177053379634
443 2.4047423166507684 -1.848958872465432 1.5821737420332935
106 0.9406632590785303 -0.6024135549004546 -1.1301032843434107
660 -3.1371134834043537 -1.9295692401305817 2.2530912459309422
709 -0.023757658097768572 -1.3956116761086985 2.327774155863424
428 -2.7615634802939573 1.5741411566737618 -0.9551793765711957
495 -0.10906705813140413 -0.9263139168535451 0.27921008202718406
305 -1.1568632885521095 0.6110475306554286 -0.8759446018241644
172 0.9168031940278674 0.9690580998941133 -1.0051018150962443
178 1.8618119349464928 1.2282210777024032 -2.582870154881797
240 -2.210571638060311 -0.2692235816103114 -1.9088560103694006
362 -0.8919242134174338 -2.2633295377911273 0.47430906795154354
306 2.4044469553222894 2.3852814712891917 -1.055820165851474
273 -3.6436339665478092 -0.7200972906385182 -1.764923872898909
609 -1.475320743900197 0.04420125818737461 -1.9500602542938168
144 0.41609806656114356 0.2040324822875255 3.137607771891008
487 0.7837176899877745 1.3280522258600902 -0.024155131955132234
517 0.559461970950838 0.3570894435423555 -1.5332610601314427
489 0.9454124167445259 -0.15102392458478198 1.5502945049558898
339 0.3798545687336941 1.816699191644305 -0.5216188897411951
371 1.91612480397568 -0.6731261351727267 -0.46237333871055664
315 0.41735862641853544 -1.3332611342519867 0.6210444438791216
53 -2.4818861979038074 -1.046008450374817 -0.813047528929608
391 1.3806278177077231 -1.5685993822067819 -0.6541786422200162
127 -0.37130063573792965 2.3845811295735317 -1.4602221767645258
179 -0.849862942155764 -1.7205921587895532 -0.335401404169281
643 3.143570155990903 0.03411789861839802 -0.38516543831425964
607 -0.8428723577346137 0.16623964427829127 -0.5858207113029449
507 -0.5228826462730264 -0.4854776015351733 -0.5136003405246513
635 -0.7223118722238718 1.3310105123077693 -0.6025264730758446
401 1.3853379895949447 -2.4998949454873776 0.5825367433582501
628 -1.0776285141481203 -1.737785413928246 -1.6136561852084903
271 0.06651888234087247 -0.3138108215714021 1.4145671271541231
615 2.5978639518259183 -1.3475801826461526 -0.9044038643588412
512 -0.38532861843638144 0.05846952753681589 0.006373528376678068
519 2.442224877575614 -1.2740121529679866 0.9404209295245345
459 -0.35297826590288384 -0.5746217697060021 -0.9412609365944936
670 0.42246334919314055 -0.39713139975727396 2.1376973850738983
374 1.3136086872444661 -2.748743623391072 1.4603396170212892
63 -0.7813666185875173 1.1064689619606416 0.8884545978460003
697 -1.6327136256528632 2.8935384995313993 -0.6445357726758214
402 0.2072193943262051 -0.35176610180822687 -0.3184838830439077
700 -0.5033543527452506 -0.8753306284241273 0.523187704214171
261 1.509908853563485 2.502258145348605 -1.5258445592125058
385 1.320251763974429 -0.24004154829626914 2.2571825403669834
444 0.6354178542381705 -2.569799995095672 -0.8725361598034489
320 0.43240628394406394 -0.31282665644489316 3.239680884739634
341 -2.374740493578967 1.419639895914013 0.9993095101020487
665 -0.8340557187381573 -1.0773135560279945 0.8791958543646368
610 -1.0391623642908503 3.2063533216934452 -0.7942230312400346
542 1.074294232548795 0.8652960561453362 -0.07523039823844471
554 -0.709728758126572 -1.967359724048744 0.27754749638720644
484 1.4773835816882654 0.651641341506227 -0.07599413821283803
135 1.594849414996054 1.2207716308916186 0.7015019636861977
190 -1.6168053513027418 -0.8204569707153203 0.9531394433328222
72 2.8312116092369544 2.03830055630913 -1.1022889953416921
549 -0.5198176884239709 -4.1974152561306175 0.790128317062746
432 0.14737132936386788 -0.2509486399270346 -0.07079861560073294
506 -0.011438817019944645 -0.3745877203028978 1.1565813592087468
714 2.5686756068822825 0.20269060073716313 1.3684598276940028
236 -1.627056567895334 -0.47244373695470343 -1.6135609698204245
277 -0.9143933545518169 1.707582206176991 -2.4638795553286728
601 0.2057225774831658 2.6704933573316403 -0.38048118503141615
57 0.5217346575170159 -0.28525745144070963 1.1108155930233385
690 0.13596877355893894 -0.20001906392473084 -0.732075531463071
140 -0.5274647622581187 -1.8079132800582909 0.6338642838145789
648 -0.5326130644632269 -1.6124300826548155 0.9351155219532098
310 -0.3555971734605529 2.4082952591903966 0.05662607616941768
