LAMMPS data file via write_data, version 2 Aug 2023, timestep = 1000000, units = lj

864 atoms
1 atom types

0 13.9685553629698 xlo xhi
0 13.9685553629698 ylo yhi
0 13.9685553629698 zlo zhi

Masses

1 1

Pair Coeffs # lj/cut

1 1 1

Atoms # atomic

148 1 1.1292630736187093 2.0089035277533336 6.856753059806171 2 -4 2
358 1 0.32680902713506393 2.948533245009982 4.61231944622595 0 -1 -5
290 1 2.8030275105819746 0.3783224889396055 0.233029342842691 1 3 -3
841 1 0.3225836522982903 6.304566137169716 0.6956639861225872 6 3 0
501 1 1.516972508057998 1.018569940134314 0.8804583932007705 -1 1 -3
227 1 0.1675176037117866 4.94950180180523 4.672293364600346 4 -2 -2
246 1 5.688151994685042 2.048106520730625 2.584574353554055 1 2 -1
303 1 0.4354433129603442 3.6695350902775683 0.6926287546629336 2 1 -2
109 1 4.011647097106588 6.600876323808424 1.3483685290397363 2 -1 -1
744 1 4.088757873548532 2.5535289673969723 0.507235044404131 3 1 1
276 1 6.575456588103313 2.432092790665921 5.86207829930868 1 3 -1
547 1 4.20419670121451 6.257447109223469 6.25586224473852 3 1 -1
553 1 1.8640027497831384 6.567025845744441 1.4871338382054324 -2 -4 2
363 1 0.8900007353722117 2.448617587598634 0.39155508786492693 -2 0 8
600 1 3.7020233144668118 3.3368879553172723 1.3671474288119363 3 -1 1
563 1 3.4115015352197364 6.171358908172214 0.7691384981725424 3 -1 -3
54 1 5.971539384473541 3.7449702547874177 0.20215924712048372 -2 -1 0
715 1 6.469346034924127 3.684885366428543 1.3642007031211945 2 2 1
24 1 6.599908875292268 4.830791473547995 0.37998335627264496 -4 -3 0
497 1 3.1806754176212535 4.570376260634901 1.4539975073935583 3 1 4
721 1 1.2268097163516234 0.8050506269343461 6.1279545051377715 3 3 1
510 1 0.4119124352251343 0.6134004684943428 5.054348944218693 2 -1 5
85 1 6.046683866090372 3.640812603900766 6.3690509596836336 3 2 1
629 1 6.1174823315295646 5.890842439066623 0.25324554216677214 3 1 -3
295 1 2.589405870210088 0.42438721359341264 2.679035286607379 1 -4 1
692 1 1.9341634714161522 0.4606450870844237 1.79990893449249 -4 2 1
711 1 4.059753182986847 2.2775174772063975 3.9936683095337715 2 0 2
656 1 4.091547575168681 0.6395668465466416 0.7125101893492569 0 4 0
298 1 6.073793624027481 0.7517887356298463 3.8535880992280562 1 -3 2
301 1 5.267805902711714 0.7226779858083484 1.9422648693291606 -1 1 1
703 1 0.01326025808481314 1.8485250657348162 6.973650382911421 7 0 -1
22 1 0.6033594539352622 1.09895190532903 1.2261301063540864 1 3 1
176 1 2.608631401178269 2.75620303467051 0.5163595301601007 0 3 -2
376 1 1.3714418770956904 1.4555049586951299 2.36579418125581 5 1 4
37 1 2.9281268517705406 3.9406540523820763 2.9150225490977673 4 -2 -3
326 1 1.4185103819122264 2.0438206879765812 1.4743344201912156 0 0 2
602 1 4.352996871000622 1.9473084724579113 1.3899513269537374 1 -1 -1
138 1 4.656993283901458 1.9106268437506675 2.530864842333878 3 -1 1
699 1 6.01168967523255 1.1138612106321018 6.691474855150854 5 4 -3
452 1 0.10229166989234564 4.387180915585298 2.423013320532314 1 6 -1
565 1 0.8869927157708392 5.670218104629292 3.8926306436340563 3 0 -2
771 1 2.623643444662928 6.297692638175207 2.1727715851000946 0 -3 -2
459 1 1.2732721935709028 4.671939314896941 3.5868277391546353 -1 3 -5
51 1 3.048241249106398 5.258041695084058 2.621241123392211 -1 -1 -3
578 1 0.8866368121578408 2.7636154925165615 1.395451491652584 3 -1 -1
285 1 4.617436374474599 5.017626804482628 4.610550796650086 1 1 -4
796 1 3.779574788936829 4.541119301062993 2.4150944038694266 1 4 0
311 1 6.0787470206099945 2.1079188522013497 3.8529025738930094 0 -2 -1
267 1 6.5826489592568525 1.321612495347042 0.8955109938293919 0 1 -4
749 1 1.7448980939936907 4.843110779582735 1.4268258862082681 -3 4 3
439 1 4.28614675750823 2.5055592458691134 6.621795719774378 -2 1 -3
671 1 1.760800940980226 5.46580626503906 2.754104571222039 -2 6 1
754 1 5.476812761745816 1.9986298041319281 6.710041881104332 3 0 1
178 1 0.9980979774205115 6.265874555029135 2.345151660696026 -1 -5 -2
1 1 0.03102970651494789 2.531203480245283 0.9188702819802675 -1 -1 3
397 1 6.570326745995492 6.718547518437281 1.5857917535405615 2 0 3
12 1 4.647656364119992 6.579525011959768 2.494025757602375 -3 0 8
425 1 2.19789127205333 6.010877633585668 6.840471344344438 2 -1 -2
343 1 1.923181724739465 2.056354774428609 5.195684704395344 -1 -2 2
393 1 1.3978518546105316 0.8063679366852397 4.774218005509378 -3 3 -1
171 1 3.488534381345601 1.1372590394392181 3.9282602852112998 -1 -2 -2
814 1 4.498241372673434 1.1614905368737216 3.3117806523532622 1 0 3
640 1 5.473970145489201 0.4513551292675946 4.601989750305495 -1 2 -1
331 1 4.002260563015452 0.5452944000437926 4.606324649336522 1 2 6
235 1 6.384597188160024 1.1065037622075837 5.072829243783156 2 -3 -3
606 1 4.598345505493792 3.1278693722778663 4.938403026771554 0 -2 3
624 1 0.5409330679734071 0.028389074809550288 4.043133072703938 0 2 3
500 1 0.1649594575443975 6.402953484060954 4.0300181011531055 -2 -2 0
747 1 2.1020169261635475 1.6491641362876388 3.86185893861987 -1 1 5
544 1 3.673706248450806 1.4749126118283338 5.0422193840911405 0 4 0
442 1 3.9345361489210138 4.467781610785207 5.713792480878533 1 1 0
521 1 2.657937307427608 2.3294535351480183 5.83610528835607 -5 0 -2
802 1 4.915491393849448 1.611364898074723 4.384998522691973 1 -2 2
112 1 0.9818775605001804 3.4987226549836428 4.114764444480766 -1 4 2
409 1 3.6133725110498203 4.673325044258475 4.607430182551229 -2 -4 6
232 1 4.998877849972742 3.8497316787190092 4.355317381341989 -3 -4 -5
58 1 4.94115840657287 4.210398009330152 6.061665074356268 -1 -4 -2
758 1 0.396706494878873 5.248315783702869 2.9621586850610466 4 -1 2
173 1 1.858182923245879 6.507911763514808 4.92442054314198 -2 2 -1
10 1 3.7345981174689085 6.055220566010646 4.68987461514031 4 0 1
193 1 4.805444693845737 6.972642472735892 5.331995984246048 3 -2 4
44 1 0.07433756056138698 6.422546377260769 6.362946946737773 3 3 3
219 1 5.1379525086563635 5.2194032198850895 3.282428558914992 2 -3 0
157 1 3.5520352727371733 2.8277209292003587 5.8069070252273125 2 1 -1
84 1 5.458158103976388 2.4755747542709847 5.863107126115987 1 -2 -4
422 1 6.491997981477713 6.02725296968479 3.1630295012441008 -1 3 2
539 1 0.5320554440125546 1.767314150576936 5.942384548416745 -5 -1 0
631 1 2.630329441458896 2.724943734329879 4.599324214474942 -2 4 4
763 1 0.23828448321619564 4.0011759650004874 3.351488024604208 4 0 2
6 1 5.22006219894988 6.917381446119384 0.8494753750667668 -1 3 -1
852 1 3.5610683981957534 3.608280012314093 6.923052929852307 3 4 1
43 1 2.843558145909984 4.22379787430618 5.358178236064653 -2 2 4
141 1 4.984544589958318 5.743061466045141 5.554369662418753 4 1 1
770 1 6.786431791749782 6.1761952401553994 6.405977087962236 1 5 2
590 1 5.9981178424563035 6.3716568658859245 4.920266830183835 -2 2 1
527 1 0.6797145940358671 5.810563690568202 4.836509638283626 -2 2 -2
38 1 6.8663335961022725 0.08527256147267578 4.368360647538139 1 0 4
700 1 3.2585622042168407 6.778061219894365 3.931397663968401 0 4 -2
535 1 5.592427074882368 0.28160663507558453 0.4593750509943326 0 2 -3
594 1 3.0569312871947005 1.1948151963224327 6.6088120692511465 -1 -1 2
414 1 6.920369855953869 2.84358410475909 6.752484247675893 4 -1 1
83 1 6.057402925569964 0.10978691001355645 2.6991391554601436 -5 1 -1
99 1 4.993073886554921 6.946134367308376 6.352500574868249 0 0 2
657 1 6.6967078490442855 0.3093947824057739 8.881927329610871 0 -4 2
794 1 4.736383905093464 1.7713629306811887 7.507049865875134 0 6 1
816 1 2.2018632834310146 0.7413026585966896 7.100733890845379 3 1 -3
49 1 1.7774903213090367 0.9573114344883036 8.12842279309653 1 2 -5
551 1 4.531519826417732 0.6397536156688753 7.668686530693396 -3 0 2
789 1 6.973815416134185 3.224594239855864 12.030221946277097 1 2 -3
441 1 5.960914353719939 1.5136435997514517 7.918658791274417 -3 -2 -3
761 1 3.6898032235096268 1.5623777218644188 9.073866425451063 -1 -3 1
611 1 0.6047969197392166 1.7779330423779782 8.399712838335988 -2 2 2
669 1 0.367659011761281 2.839982859317049 7.469136551381832 3 2 -2
509 1 1.60786003329771 1.9958477483656916 7.898193335377297 0 1 1
690 1 3.9551894075225427 0.3379749247245305 9.040822066995013 0 1 3
490 1 4.803026006726975 4.2583956902574185 8.460722587553636 5 -2 2
552 1 1.327878875647334 5.382919469917905 9.355279336388552 1 0 5
324 1 1.763259755223744 2.8724570776290888 7.03731157866462 -1 -2 2
132 1 2.4794579043348133 0.24388783132903377 8.078355942991088 -1 0 -2
598 1 3.131731202266618 5.803018410569147 8.574606591517261 0 4 1
183 1 1.9408022888091911 6.588798655761373 8.630905290313859 -1 3 -2
823 1 1.0634994372377433 3.555139019821611 7.752740125057859 -1 -2 1
472 1 4.340045534038344 2.7290974559792502 7.607310096557778 2 -2 -2
135 1 3.0391284974142025 4.440059399812192 7.51567974842629 0 3 -3
647 1 5.363870216174404 4.455350835716047 7.2925967712285615 -3 1 -4
156 1 0.7901661854955792 3.393362239791875 13.162491760161902 4 -2 3
788 1 1.427986116824321 0.06829770212296615 9.39002491480143 1 1 1
579 1 4.695803876054122 1.5247966949548382 11.982658245078566 4 5 -1
486 1 6.840124574711105 2.786983822232503 9.10506631936218 -2 -1 0
556 1 6.3241944057223884 5.457738996741249 8.73895164841649 -1 -3 -4
28 1 0.7343327433424658 1.2659119346076686 10.324539886928932 2 -1 4
194 1 6.594310829121259 5.717559021421711 10.058794002493759 -3 2 -3
477 1 0.7970486454210165 2.7831446002070472 11.20966631351835 0 3 4
153 1 2.642951163015183 1.8232857444448745 9.246306798885856 -3 -5 1
548 1 3.2070466834032167 1.4076554174130331 10.279293773878747 -1 -3 2
214 1 5.564436450968941 4.149251377195387 12.661745489577699 -2 1 -2
627 1 5.388776917155419 0.8802280255798395 9.699599403287047 -6 3 1
296 1 0.9748206264753492 3.303190230035679 10.417175620622213 5 1 -3
854 1 4.454733864924764 3.3437374768263415 13.082060650891428 0 -2 1
403 1 3.205124849712186 3.360279342998226 9.957284788221019 -4 2 5
684 1 6.905702713053569 1.0265388663529746 7.2527556611105215 -4 -2 2
55 1 3.7425030762148856 2.7776582271900194 9.08103260877541 -1 -1 1
370 1 5.011392535605743 2.790767300688872 9.791661443896281 -1 2 1
213 1 1.1042026843260082 5.16160614875455 10.266222928947357 1 1 4
23 1 0.8742224378304756 5.460870481477526 11.337614119055809 7 -5 3
306 1 3.0638735685483427 4.640112489271714 10.477791477070722 2 3 -1
596 1 2.349697163685482 4.93793033525261 9.412793113797088 6 4 -4
664 1 2.646002309507036 4.130527572608923 8.552195007551427 0 1 -1
576 1 4.289271651267829 5.125497922439128 7.515246747519778 -1 -4 -3
685 1 5.2328406530292995 5.990408981946212 9.012768185225829 -1 4 -1
595 1 1.051876324093466 5.861244174920001 7.956886657578632 8 1 4
731 1 0.24368805767797627 1.953621708546632 13.548895677480429 1 -3 -1
679 1 1.3308448045910992 6.401349575695863 9.662687421667675 2 1 -3
77 1 2.958483997184294 6.718735585738041 9.193617820863409 -2 -1 1
706 1 6.763863603940996 6.4596443295435835 7.54327391466686 2 1 -1
86 1 4.975876229825914 6.400336814704233 8.1564962202856 -5 -3 -1
155 1 6.841062728153038 2.995142120752737 10.75076895624586 1 0 0
561 1 5.2868078258327715 5.010462795988827 10.950430974429919 -4 -2 -1
106 1 4.1291971223254125 0.9536433811065378 13.635455427597183 3 0 -1
688 1 0.02756006801861925 1.1926634891824919 12.39321182885853 2 1 -2
182 1 2.129912180839012 0.6898484089423436 12.01117873896106 0 3 -3
152 1 2.885715349183947 0.8052388921711681 9.239157965331195 -2 2 3
696 1 2.216421875675905 1.3784389498130092 10.464809635556975 2 4 1
154 1 1.3719942031880186 6.884462682068807 7.63989896764879 -1 -1 4
622 1 5.533296877428941 0.5761210369915077 11.025729126403165 2 -1 1
256 1 3.527026947423045 0.4223761803128541 10.673981803533927 -2 -3 -1
16 1 5.54217981883826 0.4480871231583852 12.341071405739525 1 1 -1
374 1 6.009976409505375 1.3602643698442187 12.110167400839732 -1 -2 3
257 1 2.2450512768108646 2.6975662868590073 9.999213388807656 -1 -4 -2
8 1 2.667002786577642 2.7116519878570693 11.185072722216875 0 -1 -2
683 1 2.1931580850686827 1.8305470621290203 12.119525214086549 -3 6 -1
571 1 4.8489315864366995 2.1107660474267544 8.857798982357506 3 0 1
209 1 5.3354681480981885 2.7663234686013944 13.176660124296475 0 0 -1
79 1 1.820769163568812 1.127222924601187 9.083282326705266 3 -2 -1
809 1 6.164738810877062 1.426047679761552 9.600219613109905 -1 6 -2
587 1 0.2588151841276636 5.255396295878953 7.287959068243584 -1 0 3
159 1 1.3570614987456897 4.247023181885511 11.93007880523518 0 5 2
463 1 1.6432067355385105 3.528436655394307 13.866865884344447 -2 3 1
654 1 1.9097632251850147 3.5531672057639128 11.079247285662833 2 1 -2
36 1 4.5214579852428285 2.31758115435209 10.480127170308041 2 -1 4
698 1 3.04208234451962 3.4469424586858275 11.922058832486009 1 4 -1
728 1 2.666207287140719 6.56987220286978 10.304419801083993 1 -3 2
320 1 4.606728371943327 5.159047315371711 12.20596470422009 0 -1 0
762 1 5.747304147615962 4.609230764568273 11.706568572238131 1 1 3
280 1 5.872572903044012 2.2045789728526217 11.528814514190747 0 4 -5
533 1 1.4412726740609727 6.776722462228589 10.805152502890786 -1 -4 -4
863 1 1.529703739581763 6.626142200010224 12.060102798810322 -2 0 3
620 1 2.2589397995611598 5.502913703926252 10.71202643239018 5 -1 2
811 1 1.2800264081749668 4.53191918991568 13.216019188142566 1 1 -2
502 1 6.752098838505131 5.184343687649956 12.185326549423829 1 2 1
651 1 1.7924270432001177 0.6451591474767384 13.838898158601323 1 0 -1
705 1 1.179687622537989 1.4724745135420572 13.112633609956227 3 1 5
443 1 2.964877911954124 1.0073401868019782 12.97702322937501 -5 -3 -1
832 1 3.1644599580015687 1.0582439643459018 11.337175012147915 1 -2 -3
262 1 1.0806964668899235 0.880425166769132 7.214044354128407 -2 3 4
517 1 1.715319263303087 2.181179427408382 11.348440274150231 0 2 -3
848 1 1.9493856881208256 2.5969404116093515 13.699092623315508 5 4 -6
128 1 0.5345211221852686 2.168519706092736 12.076439693431032 -2 3 -1
642 1 3.7336942828638753 1.7225355451457793 12.776068420452903 -1 -2 1
681 1 6.640030910956351 0.4710610583759999 13.383015583456947 -2 0 -1
864 1 0.20593608540869326 3.962615322032765 7.248889004451811 5 -3 2
330 1 1.741000439555745 3.482979990538028 12.610198260529362 1 -8 0
230 1 1.3301432167479958 4.93817472794303 7.441627427637871 1 2 1
479 1 4.25666155075954 5.5078539900844605 13.313488263387526 3 -1 4
672 1 3.817498793910207 2.7457216477293733 12.428627375324924 0 -5 1
310 1 5.170437155792076 5.071714623521176 13.53223555345525 1 1 -5
546 1 2.2741101370990364 3.570504097681771 7.750657319738537 5 1 -3
170 1 6.7996745690971645 1.8932044251804858 10.854023845615528 3 -2 3
465 1 0.33329797146756496 4.64799641960742 13.768118381806584 -2 -3 3
417 1 0.4705057473674259 4.2839917519489825 10.048301654057846 5 1 4
365 1 5.0359449962630425 6.955944115229327 12.520069574120233 -3 2 1
400 1 0.22016231020139537 3.937715456492717 8.532651331784898 -1 1 0
691 1 6.911982116361298 6.180431858638757 12.963878700306138 4 0 0
650 1 6.953525041718713 1.0984756256732058 12.149122187559604 3 1 -1
283 1 6.893795253794258 6.244570921364431 11.630388579515849 -2 4 2
166 1 6.0741362199347755 6.977285613667725 12.359066989875767 2 -2 -3
60 1 1.190336063068221 7.627046323261389 6.883247797489695 -3 1 -2
258 1 2.854870091544278 7.831101735468215 3.325955591841811 0 -2 -4
13 1 3.8519675030852745 7.12934263276107 0.11015272079712699 1 -3 2
15 1 5.8057053430951004 8.106245305036817 1.7412049981940363 0 0 4
108 1 3.491435831354245 7.9659340511890555 1.7518132421736392 -4 2 1
100 1 0.6091497601307208 13.226696153061757 4.806871497114595 2 -1 5
773 1 0.47655559991506846 10.984913243250528 0.5979580803582653 -1 0 0
645 1 0.32884393548910756 12.500149428500997 6.728173227529912 4 2 0
725 1 2.430935524318609 7.879197306823006 1.010360443960095 1 -1 3
191 1 2.7955313747100803 8.89662180358362 0.09143733262277358 2 1 1
550 1 5.131818250963331 10.485140395114929 0.1827754005677813 1 2 0
776 1 2.623862708802738 8.417620854899418 1.9303196696311682 -3 0 3
446 1 5.202244769105571 10.536085637559301 1.496641611447682 0 -3 -1
158 1 6.309613394459724 8.668973933304985 0.781894280425814 -3 0 1
196 1 6.334588983529958 13.042297392509782 5.670918045782281 3 -4 3
555 1 1.198781314114813 12.057987346260717 0.6216642237453233 -1 2 2
371 1 3.217135645615579 12.386719962465266 1.8951386177994647 -3 0 0
687 1 3.7001233067843615 10.15300821820335 2.1831646006284533 -3 -1 -4
799 1 4.8226212176529115 11.906254356479165 0.9929766892739064 0 -5 1
356 1 6.055565654169415 12.801857037685414 1.8330668957788423 -2 -2 5
307 1 4.090779985256212 11.284983236098887 1.517549997565142 0 -1 5
619 1 6.541888527271562 11.617313643246558 2.766101826824272 0 2 0
254 1 4.531321025805504 13.738280369033642 3.9805649037397046 -4 0 2
718 1 6.854194055326261 11.197104286259446 0.6054885643763199 1 1 0
337 1 5.159665308172822 13.233713824031469 1.1453002214871841 0 1 2
837 1 0.6098445394104387 13.18782999669472 2.230666243826316 2 0 0
778 1 6.771151019026259 9.12602619580204 5.181542425115614 2 2 -2
635 1 1.9860631335217116 11.286210701977723 2.1494913501591646 1 -5 -1
20 1 2.5580361869710244 11.594554443132736 1.2309691140514214 -1 1 0
210 1 4.13443660307098 13.281639302400087 0.7922333719228034 -1 1 2
658 1 3.9985025736998194 13.191387221705892 1.9053794924239125 -1 0 0
659 1 1.0254036025287658 7.3954289690807755 4.0816770543118235 4 0 0
559 1 5.606743677767049 8.94352818953474 6.0276839364806865 1 -5 -6
646 1 0.713208115267367 7.998547690997125 2.5999451097588255 0 5 -3
460 1 0.8976235417192816 8.752959413202724 0.4318303842238386 1 -1 3
836 1 1.833354131761096 8.512654835395256 2.7521892110381185 1 1 1
572 1 6.6348658284013435 9.850277327861994 4.41690113427991 -1 -2 0
387 1 6.567717963644501 7.976415496713133 3.5728193220757727 4 1 2
294 1 3.0004588484669417 9.30701561940654 2.5906086566482696 -2 -2 0
67 1 2.4687920171164595 9.903440769113256 1.698286396422822 -5 -4 -2
297 1 1.7141191947941132 10.171680765440819 2.660645180808036 1 0 2
847 1 6.387631945380571 10.02240818262588 2.6400229364521035 1 -2 -2
504 1 5.262095492212247 10.392847874662765 3.6630821073872974 1 0 -4
626 1 1.3381792679926852 11.338866988408114 3.2077312182915727 -4 0 1
608 1 1.4575647173939148 10.116028056972123 1.3711691204330005 2 -1 -4
375 1 4.08381786856442 11.650657793261638 2.5033722750237493 1 -1 -2
759 1 4.9483495795576395 12.395240133421881 2.031033438629401 -1 2 -2
350 1 5.469325163323753 11.441924730063386 2.171158173041045 -2 1 4
717 1 2.4720198590399325 10.506857073371682 3.6674210778894216 0 2 -2
610 1 6.636420353806563 11.736072390361944 4.052788040681678 -4 3 1
394 1 3.4903189861784316 12.280225737358478 0.7649818645598255 5 -1 0
805 1 0.2946987852390915 12.208037194570922 2.00787014696266 6 -4 2
570 1 2.85316032701227 13.78086008500815 1.7996604864210748 0 4 1
623 1 2.3456593181133814 12.851605407402928 2.6773936878787983 -2 0 0
757 1 3.8551017233865568 12.534840011344432 2.8252461160728632 1 4 -1
195 1 3.0837724024620883 11.889450305946605 3.8370784185903717 2 2 -3
430 1 5.075579490746266 13.401408889790748 2.690294429678538 1 -1 7
231 1 6.843707808049325 12.72307398454958 3.2479512568593787 3 4 1
449 1 0.08236979839403352 8.476691642206395 6.951800244472873 4 -3 -2
557 1 1.0529208183457752 8.853669475315996 3.494577399676603 4 1 2
511 1 2.387918802209619 7.6152604272175966 4.4920165843334265 -2 -1 3
302 1 4.1630157102738 7.6055482507639205 2.852826072669398 -1 3 -2
5 1 2.983359061589685 7.269251300861159 6.531351776859713 1 5 -4
353 1 2.928346995247075 7.011014798629734 0.5809415209654967 1 0 4
181 1 0.5835461763584148 10.74714253451193 3.265369368999941 -2 -2 -4
508 1 1.2221772548898162 10.054621201912726 4.754261378275489 5 1 1
525 1 1.3361229343368375 9.938625708599563 3.7820708584125176 2 -2 2
386 1 2.4835188121943705 8.960640656183083 4.191518210912278 0 -1 0
7 1 4.893814590747608 8.80058526840338 2.874680210900247 3 -6 -1
201 1 4.61448703901409 8.701720849813043 3.80416218502899 2 1 1
21 1 2.934885934590896 9.82303601810316 4.725089590200956 0 -1 -5
741 1 3.5882075234330366 8.866176206559686 5.050374071082003 -3 2 -1
379 1 6.919653757648616 10.595951344975624 6.342726517622704 -3 -3 0
575 1 5.9694606995709965 9.597324662946951 3.5316498848364564 4 -2 4
612 1 6.129799772253919 11.563804767768985 5.885773776300041 3 1 -2
105 1 0.34615943111078495 11.905585257172847 3.487992349573788 -2 -1 1
11 1 0.8163063105339118 11.018070235913296 4.6056310680701875 -5 -2 3
584 1 4.151758363627464 13.393978875882928 4.955548107225059 1 -1 1
322 1 0.6367904065685124 10.379899093379684 6.444024095891675 5 0 2
523 1 1.5887580363241103 12.933067726145897 3.551379091456554 2 -7 4
755 1 3.682025975768504 13.656273046086117 3.0141137311754336 2 -1 -3
653 1 2.119603619488251 12.921335856206937 4.459959843933689 0 -1 -1
33 1 4.7560835621329645 12.615641217274842 3.741141519762528 3 -5 -3
488 1 5.827546604671039 13.224053394058378 3.45465570688087 4 -1 -2
401 1 0.22259437897603063 10.195467347061076 4.180318132632296 -1 -3 0
782 1 4.379368914216982 12.09923981470936 6.01232065315662 3 3 4
726 1 6.8081844833173415 12.938849485803543 4.320323826428355 -5 -1 -2
713 1 5.537517130353873 13.802030729562796 5.563626492027565 -1 2 1
369 1 0.17572555518417562 7.84269572107743 5.747913956222274 0 -3 2
75 1 3.3921833078593386 11.790609598324417 6.610872013451069 0 2 -1
496 1 6.709997381592103 9.599330284065228 6.9237812853413665 4 3 4
57 1 0.8834814262590235 8.172089823104152 5.162711641631452 0 -4 5
471 1 4.151610398683681 7.8401743280175085 6.4742873370487235 0 -3 -2
260 1 6.628029162654752 7.14465158958494 0.6292442648521887 2 2 -2
116 1 6.923745075581231 7.271198000209445 6.444658132805881 0 -4 -1
174 1 5.4111278850855795 6.994168387313744 1.9049433980673303 -1 -2 -1
14 1 0.8688389930659597 9.128551465119537 5.591689727152171 -1 -5 1
150 1 1.7810427690095372 8.637250892072654 6.511091726231424 -2 -2 1
786 1 6.939126125938195 13.52323625825013 6.633444753841377 -3 0 -3
161 1 5.563852824661912 7.823220278932921 6.707883527934248 0 0 0
180 1 5.876644797456201 8.351483572907206 5.018928147560796 -1 -4 3
740 1 2.5294338803932663 10.585056870598914 6.738859192245701 1 0 5
327 1 4.8383880736064615 9.908604454158347 6.3631157581490525 0 5 -4
524 1 5.441206371406528 12.503822252361513 6.263885068755241 0 -3 -1
558 1 1.2083767322764574 11.88027382113842 6.509594129274029 2 -1 -4
45 1 5.910160688561194 7.406494858452344 4.313871143330242 2 0 4
678 1 0.7210545411042337 11.314749269158208 5.57435890444205 2 0 2
366 1 3.531408708366223 13.423004066211442 6.195971586413877 -3 -2 0
529 1 3.8801165543709915 9.149511956458362 5.978916340362728 -2 -2 -1
445 1 1.5076147954561903 10.436988408696354 5.795998639309704 -2 4 1
248 1 5.331116179259823 10.709320321054891 6.768758546005022 -4 3 4
753 1 0.039613034905258325 9.774120546365184 5.623681748189104 1 0 1
738 1 0.47713488633155765 9.019460212902425 2.5018618817258176 -1 -1 1
444 1 6.003227490960731 7.383050745176333 5.8388572222219235 -1 -2 -1
61 1 2.033081162279212 7.174674576948729 2.528269817540963 1 0 -3
221 1 3.0617776006560624 10.456416417546016 0.6581999603033765 -3 5 0
660 1 2.932841735950719 9.337722171418262 6.880279014123192 0 -1 -3
378 1 0.5962595489571496 13.553211583767117 6.0139230463012145 3 0 5
39 1 1.8741842766466623 8.356498786876045 0.05594603438600674 1 -5 1
824 1 2.2850565842437978 7.547768171309765 8.331507143680192 5 -4 -1
485 1 1.7059203076457143 13.251283087669375 8.801283682009581 -3 -4 1
399 1 2.15079584884713 7.580391443407453 7.254523629095196 -2 -1 2
408 1 0.12651252851186104 11.876089414772016 7.466759347026277 -1 5 2
859 1 2.4465867905589183 10.167065674179813 13.33335019168362 -2 -4 -3
798 1 5.979350470832992 9.44881448542136 8.447185853719285 -1 3 -2
695 1 0.14046503150665543 8.589012246812656 8.374581021405959 0 -4 0
323 1 1.0218555524196395 10.04943181952322 9.055401589248202 0 0 -1
484 1 3.098055337764772 10.184243238447685 8.567782608687303 -4 0 -1
198 1 2.1980921186267146 10.593972809464047 7.878716435508762 1 5 -2
288 1 3.6097070978505177 9.364332077199851 7.8880304805296495 1 0 4
676 1 1.9459939176926748 13.180101787278122 13.2667653167559 -1 5 -3
583 1 0.0020667195902176177 12.148154429880922 8.387060411275886 1 0 0
566 1 2.94282579719052 11.672367298742625 8.844467615225833 0 2 -2
454 1 1.0711942196427078 11.705843781971524 8.586330419476424 0 -5 1
136 1 2.13360838984613 11.822793659788283 13.75794243278707 -1 -1 -3
143 1 3.2160056620998816 11.00454518836212 7.753351315651243 1 0 3
34 1 5.745003502086812 9.067444880512879 10.043168639457868 -4 0 -3
652 1 2.056875282214205 11.557727982440099 7.967065395437668 -4 0 2
237 1 6.8615842513985665 11.271353786386449 7.134592729222788 2 1 -1
385 1 0.2473503079236026 9.79605364068628 11.820153702267348 0 1 0
456 1 4.5360834595437085 12.847609068133663 10.005246082904376 0 8 4
745 1 1.1429077811746058 13.75567390877692 10.654977786580002 1 0 -4
207 1 4.68465995223359 12.844417626873222 8.55747352315069 0 2 -1
843 1 2.716558622310722 7.6075653513878 13.657147134208738 -1 1 1
493 1 3.7472540891037665 8.179055692585306 13.076037532442832 -2 3 -5
729 1 5.005454314328293 9.954470238087938 8.154413712703809 0 0 1
137 1 3.3453740606186866 7.545336139725519 8.792519872778522 6 -1 0
742 1 4.596951543677978 9.83059637839286 9.88445908179478 1 -4 2
142 1 1.7197910960598972 8.588842955361649 7.471373614678962 -1 -1 1
677 1 1.3894483740745476 10.081542358624644 11.822470513240285 1 4 -1
336 1 5.168275589285985 7.138404082334483 7.539824812867665 -1 3 -1
470 1 2.424816343980353 10.603159346870893 9.550618641655358 3 4 0
724 1 6.443456553310391 10.238172591271212 7.709616674603452 0 -2 1
131 1 5.5239799563886525 8.525119898955351 7.699640014268948 -2 -1 1
505 1 5.576794007646958 10.933769439154643 10.621582611456526 4 0 0
819 1 0.03598495096304552 12.816033470526575 9.20469380331202 2 4 2
803 1 1.069709061605268 10.601627342922093 9.945036564066356 -3 -5 2
736 1 2.544359646192857 13.788893921260476 11.41117440523402 3 -3 -1
362 1 4.300022096906696 10.54205070947097 10.552123296254814 1 -2 0
110 1 2.9896392755459607 12.143478806025717 10.029946056724741 4 1 1
70 1 6.306469654248385 13.075516557416195 9.153763360740681 -2 0 -1
636 1 6.837247202377159 11.052184997888634 10.884757027445433 -1 1 1
102 1 2.8164608267759834 13.662110457150785 9.442511740499775 3 -3 -5
593 1 3.8202946943169453 13.662560998284857 9.800148331443719 1 -1 0
299 1 3.5425538619821038 12.858853530594336 10.550479555293288 2 -3 1
293 1 5.184487236724604 11.858000920808397 9.77162871936353 1 -2 0
149 1 0.741958286810157 7.836589506730469 11.860765664535077 1 1 2
727 1 2.215909758818452 8.120819623509254 9.570532477887987 2 1 -1
62 1 4.440712127635242 11.134249814355552 13.404438685661145 1 -2 -4
416 1 1.4410212188485123 8.405475704277901 11.319820567711561 3 0 2
18 1 1.9417216133867028 7.655859274591591 12.857811141552627 5 3 -4
78 1 4.149901668547624 8.654558182631346 9.680041514582102 -2 -1 -5
144 1 2.1376775558927115 12.425540414160857 12.547386664920626 0 2 -3
411 1 4.516942822655715 10.189854587478987 11.971938535926485 -3 2 0
616 1 3.53666332378237 10.981470318821993 12.98739828732982 0 1 1
468 1 4.283827571817557 9.09458081686806 13.81498442952476 2 4 1
499 1 1.1307367925438427 11.472775118003444 11.69698819681393 -2 0 1
412 1 6.1077676699817225 11.633921730896386 11.558038863282942 3 2 -2
243 1 0.5713833798213293 11.610579974152879 10.366025753266134 -1 -4 -4
252 1 0.14412822911725667 11.051027974225061 9.343209063873527 -1 -1 -3
549 1 1.9926086931411047 11.049884818321884 13.075787973602239 1 0 0
617 1 2.6279048346288 11.943439333053213 11.156662990324715 0 -3 0
215 1 3.4095733951205185 9.757538219084235 10.321293286654111 2 0 0
582 1 2.140454379272856 10.829410615486069 11.494358568448023 -2 0 3
519 1 4.502366919601335 11.444906202613355 12.218198106382909 3 0 2
172 1 4.18892097906762 11.909948188719756 10.268775937010226 -4 2 2
514 1 6.373958628005993 10.067277025324795 12.619649525263545 0 1 -1
249 1 1.125881987041094 12.597873078150004 10.715210394172917 0 1 1
534 1 0.8889974508460796 13.689488441465597 11.731116648583276 1 -1 1
777 1 2.018838373166742 12.95239890242373 10.164713424868767 -4 0 -1
382 1 4.065745261793013 13.391212964352471 11.255071750214915 -4 -2 1
372 1 5.056483164065243 12.10714348763039 13.350468468906664 1 0 1
179 1 0.7042485412896327 7.154401103740732 12.900256867057854 3 -1 1
526 1 0.14195888502309204 12.98015705516703 12.25279831271748 2 1 -1
437 1 3.4790179297534176 13.820606231217313 13.541098467193159 2 -3 1
733 1 0.3681077351606018 12.773077197843222 13.234462267716033 2 2 -1
424 1 4.401459605308358 12.673388195772345 13.833156662654496 0 5 -2
845 1 0.1649874675122902 12.831856011908236 10.648318542516275 0 3 1
160 1 3.182796532542118 9.49533679598998 12.661236534544438 4 2 -2
391 1 3.5922435868848854 10.02459536744978 13.53102976790348 2 -1 -5
87 1 4.830810446569462 9.122867322003488 7.017698302645864 -1 2 -2
708 1 1.1614034354659948 11.535283049699098 13.609153406923195 3 1 1
644 1 4.6769074243854805 13.39258553442328 12.46745980927966 2 -4 1
357 1 3.201331007762133 11.971717409594312 12.353667930676734 3 -3 0
858 1 4.3350666814882635 7.04662986898489 9.114920843642311 0 0 0
746 1 3.0827973598097302 8.306042893446008 7.1296194772304 1 2 1
712 1 7.222997312216871 4.830032579754782 5.991732580530093 1 1 0
817 1 7.524795810954531 6.548094317945104 4.952588809917064 5 -2 2
648 1 9.629005550070648 0.8726821648189734 0.6445344092762253 1 -4 -2
101 1 8.39313477504832 3.141494992769826 0.569554442812601 2 -1 -2
203 1 8.151007338645861 1.451420285378522 0.11953467106471953 -1 -1 3
360 1 12.346338022458669 1.202785903698965 1.45445965328391 3 -1 0
69 1 11.11887977581254 5.594314893361478 6.0774726243615245 -3 -1 0
316 1 8.626107175950704 3.084136593384128 1.6516949204463196 -2 -2 -2
74 1 7.093155884492815 0.9145790490446618 1.9966804623932386 0 -5 1
239 1 9.553333844656525 3.3426908333585135 0.8904054521249735 3 -3 0
341 1 11.515210611865491 1.6208334190007703 0.73908344057442 -2 3 -1
621 1 7.0269000894241715 2.0793667641993014 2.395969088489782 1 5 7
199 1 7.181759850851899 5.38380004127982 1.067062033180325 1 0 5
737 1 9.968374338557682 5.240771697656696 0.1733364351520068 -1 1 4
127 1 10.018147116160431 4.58103966967989 1.0437825205234343 0 4 0
780 1 12.265663186917065 6.406471394218808 5.765624756060063 -2 -1 3
367 1 11.101497515863562 5.920652628691285 2.1432989450859306 0 0 1
162 1 8.523617044249523 6.02261472352291 1.0113957437437846 3 -1 -4
184 1 7.291302833123163 6.017663367797453 0.17461090197629908 2 -2 2
675 1 13.64481727526908 3.1562927196060624 6.621918148252137 2 3 0
440 1 9.479752392526361 6.430832692095151 0.7091985371507842 2 -2 4
104 1 7.164099664915092 3.3892646746983512 0.5204462335732913 -2 2 4
743 1 13.548895602483789 4.5978740218521805 1.4280811092210568 -2 3 1
787 1 7.495070804677174 1.7039310065501412 3.301161619117208 -1 -1 0
614 1 9.666185880380866 1.8172079415859375 2.7460848169390255 1 2 2
66 1 10.195762986237948 0.901082423113898 2.32299236185953 0 1 -4
347 1 11.29518617385643 1.4983242358327444 2.550608246892311 1 2 -3
734 1 11.957913180650136 0.6532298032952657 2.604692584699489 -4 5 -2
266 1 12.728869701658434 1.3563307508665612 3.5740635935222924 2 0 -2
722 1 9.420296098823256 2.1404497575646118 1.3812308215837716 -3 -1 -1
93 1 9.399142598933574 4.267869068065912 1.9019828348671917 -4 -2 2
147 1 10.022912337768409 3.0385716830264795 2.230920604450548 -4 -1 1
286 1 11.304145222412497 3.7485460969773947 1.4807450346536561 1 -1 3
632 1 11.017525752284172 3.415061735299257 2.8583662289485336 3 5 3
432 1 11.710972995202004 1.6501861543211727 4.070030203970595 -2 0 -5
97 1 12.709105478261565 3.909459625662061 2.4464705240531033 0 0 2
641 1 12.804483264723368 2.4069880113883877 0.7340553245666338 0 -1 4
720 1 9.480360301262035 5.0703206294125716 2.696908862225382 0 0 -3
451 1 8.340876612486632 5.2888484165485075 3.328923115399227 -1 0 1
133 1 8.008610500955914 3.897000815657311 2.0077491768546367 -3 0 -3
568 1 8.661774669071992 3.997241118290059 0.7274822506376296 -2 0 1
476 1 10.12138759898834 4.199634199120612 2.9125602653285627 -3 -3 4
850 1 11.504051005108174 4.01735068290142 3.6464541218340676 -1 1 1
354 1 12.141056533172128 3.0952712871269976 1.7913495140485425 2 5 0
200 1 13.071890164230588 3.949398518792259 3.7037689159321214 -1 0 4
253 1 13.869801867397765 3.035942084793184 1.871511359611147 -4 -1 -2
65 1 12.60150764467026 5.047093880709179 3.6258678129719453 1 2 -4
701 1 11.840361644719255 4.5627160707927 2.7668385826115163 -4 -4 1
169 1 12.140111919719676 3.413053658775735 0.7843822654146252 1 -2 1
413 1 13.570965532869977 5.923419390475058 5.383637594346983 6 2 -3
790 1 8.461221498155787 6.387741943624539 2.1845762479373274 2 0 1
344 1 7.650695805584343 5.127562523945543 1.9355400286960467 -4 1 4
90 1 11.0118012508083 5.17730433473097 5.012068412716212 -3 1 3
507 1 10.064565362684364 5.488769370750323 1.3788949034494595 0 -2 4
709 1 12.207235149500775 6.238841296709363 3.1357446372750863 0 0 3
537 1 7.575817176348379 0.22969398204572783 6.100077617452248 -4 5 1
599 1 13.549295483729177 5.6643116282604264 2.215477858183411 0 -2 -3
384 1 8.93471439436623 0.8028327601157975 4.952939739208853 7 -2 3
26 1 9.900177917323942 0.5342802775191077 5.132552669165596 -4 4 6
220 1 7.708825274492533 4.424190856697768 0.8036943238260119 2 -1 -1
395 1 11.00515776863895 4.7148437111438515 6.5405988427042026 -9 -4 0
862 1 12.156024888451615 2.7478216398006707 3.120869683169501 1 5 -2
806 1 10.294377671687897 0.15373061230618143 4.229637378563409 -1 1 4
589 1 9.600232997558667 0.7494375215590121 3.6435614995330563 0 -2 3
492 1 11.659201226179519 0.9850826745050025 4.79034889802595 3 -2 2
228 1 12.764935172258056 0.8732073835277778 4.626833227511432 -5 5 -1
455 1 13.052977865176 6.0545301980618245 1.3319134127729548 2 1 2
291 1 11.213087908524717 0.4330806756252988 5.835497036138979 -8 0 -2
772 1 11.47885588471603 2.6735786153189403 4.146928040542761 2 -1 -2
279 1 10.661663748346282 2.006720240825588 4.599648927022637 1 2 -5
615 1 13.758833388379593 1.1144765173104099 3.904331062782693 -1 0 0
478 1 12.454864621111811 2.1848465340261183 4.547270254883739 1 3 -3
380 1 8.526813785742405 4.582995521646354 4.493258430683066 -5 -2 2
604 1 9.248445190565755 5.519739414444348 3.777506922327181 1 -1 2
429 1 7.587479786326743 3.835892416496278 2.996320952028581 -5 -2 0
349 1 10.113716248690094 5.20912893699237 4.3934374460165735 -2 5 0
791 1 9.831194404656777 4.452254095043307 5.067728280652367 5 -1 3
73 1 10.452848979818805 3.98352740370186 6.0964852366409295 3 0 7
447 1 8.866170533124535 1.6802095013369744 4.2860346353280985 1 4 -2
458 1 9.48595327696565 4.074640280102471 3.816458780297786 2 2 -4
427 1 12.017435608229885 3.455155695071576 4.678724304628437 -1 -2 1
187 1 8.440028587108733 0.28575858288056355 0.609471404051994 0 2 -1
211 1 8.40718202775485 5.725953098117892 4.402665690349049 0 2 1
271 1 13.177942294954343 4.911333843181691 5.090406797976645 5 0 -1
520 1 12.948586864511284 3.074807351013449 5.439789690846363 1 -1 2
419 1 9.326393768961868 6.101338195024719 2.7394315901388926 1 2 -1
134 1 13.848545212868196 6.780573837605922 1.955411385709157 -4 -1 0
71 1 9.863775590245362 6.296569458753652 3.8785616814570956 -1 1 -1
50 1 10.801965562595713 5.7597089151024194 4.00630374765833 2 -1 2
769 1 12.605381039740982 6.375483532367345 4.713434119724035 -3 -2 -2
532 1 8.327248963729533 1.3274305643772155 5.681377813310718 0 0 -7
351 1 7.2745966301546705 1.2178236326986525 6.142657285793284 1 -7 -6
625 1 12.530205927014798 0.34058765850190015 5.720179047070428 3 -2 3
175 1 12.473090422344317 1.4816167738656258 6.028250992228806 -4 -1 2
270 1 8.741001552479636 3.404632205193478 6.184366150751061 1 1 -1
483 1 10.686367407835128 5.8730926973715345 0.43136852737073583 0 3 1
752 1 8.69501616687088 4.271767800964725 5.57240394079929 0 0 3
528 1 7.295935707404346 3.3623906775103714 5.846471161462244 -5 -2 1
244 1 9.55195733527077 4.210923259376436 6.750229069185331 -1 3 5
388 1 10.477591944637958 2.929976937386806 5.01870763895512 -4 -2 0
129 1 13.16772461497284 0.01990042036995848 3.715672311409747 5 1 -5
668 1 7.29087526627179 3.1910720485664403 1.6316323686594523 -2 -1 -2
818 1 7.952953589753884 0.2840530499049808 4.946266859501501 -1 3 0
4 1 9.345791930491849 5.103944117316448 5.702381290342733 -2 -1 -1
402 1 8.260229555667356 5.142701092104339 5.741599388196519 2 3 0
205 1 11.621561421685819 4.216364786500292 5.203995233057548 2 2 2
334 1 12.30505228585488 5.46580342751006 5.698429274296428 -4 -7 -1
352 1 13.055306187764195 0.36839858370786527 1.9228607969633993 -6 -3 -4
846 1 13.560828634447956 4.044241496060019 4.570000226437867 0 0 -1
634 1 13.127205302959608 5.887606901710693 6.507857397034315 -1 1 -6
580 1 7.962852227487171 6.313664297001462 5.940698651168308 -2 -2 0
340 1 13.960278342663594 6.1706032761396665 3.0371488747174626 0 -2 1
225 1 8.632140580707947 4.743710823348172 0.09041554288627941 0 1 -1
597 1 7.5745469746632175 6.161012273341636 1.6310954758894325 -1 0 -1
332 1 10.428808609102473 6.618013674309717 2.687828693529337 -1 2 -2
125 1 13.842425271586386 4.9883518780574985 6.005646381016237 3 1 4
522 1 13.305466969535782 3.399658776701939 0.9650807068164882 -2 0 2
480 1 11.95979859000879 0.7410572991496197 0.23995583304704865 -1 -4 5
261 1 13.402986686865328 1.5783878855126754 1.856011850303981 -1 2 -1
833 1 12.756706535082685 4.157414957995581 0.16051072097663394 2 -1 0
702 1 9.431473572529702 6.917249074077001 2.160554994270973 -3 0 0
513 1 10.816175664216924 0.3390428208039801 3.186283096004966 0 1 1
308 1 9.732602535301211 2.4223544628871307 0.07860124326977003 5 3 -3
834 1 13.012983068868863 4.318175834236967 6.533975344123043 0 2 2
404 1 7.012410463514465 4.245086351293497 2.2223766076129 -1 0 -3
314 1 7.250615347671686 4.031814645208873 6.902047275993583 -2 -2 -1
245 1 11.869693443035105 5.43024233348029 6.904340908895374 -2 -4 -2
204 1 11.103018526089842 2.7126046969079414 0.18555328739766014 4 2 -2
607 1 7.422681644196694 5.031012506892077 9.823564035161557 -1 -2 0
775 1 7.086028604411708 1.4987024477707793 8.946844710784886 4 0 0
41 1 13.616962626116571 2.308851921312841 12.777884749880936 -3 0 -2
639 1 8.240325924747427 2.055244750270015 11.974010263155975 0 -1 0
543 1 10.09256947059047 0.794387936757495 13.367720441842698 2 2 2
487 1 12.184615817739619 2.1820425530958922 8.553161183682315 -2 -2 -3
197 1 13.44169524054085 2.6303844285134286 8.033490931650608 -1 -2 2
839 1 7.82649922206766 2.1741082843549173 8.275056703127225 4 0 1
229 1 13.363428971576132 0.029334609990035964 9.088445223561514 -3 -1 -1
32 1 13.262106682274839 6.133498521993067 13.866780815780936 2 0 -1
56 1 12.91172180279112 5.699547158763798 8.680974022046792 -1 1 4
663 1 13.024765751360695 0.23745495990715149 7.584066215819131 0 -1 0
498 1 11.155223210040676 4.393645875977998 12.61255366701184 0 -3 -4
364 1 10.248009758333636 6.660647804435469 7.9282801794675395 0 5 -3
9 1 7.821775074349562 0.4792504924203629 13.712583594077659 5 2 -5
265 1 8.35500908281089 4.4409855044275135 7.788100992580232 1 1 3
853 1 11.009946894622527 3.4572523647999924 8.335226164182629 1 5 0
405 1 9.863552372523245 3.362503120576556 7.45647897104812 -2 2 4
81 1 11.112186496254846 0.5531552630932947 7.373137285876166 -2 4 -3
216 1 11.689815903357351 3.270390486176875 12.702774668132184 -2 -1 -2
277 1 13.880755706309543 4.957836792257243 8.58498987075486 -4 0 -3
667 1 10.24945581731154 0.10565627730181941 9.67522695860409 -1 3 6
732 1 7.570556432237146 3.6424755791117267 7.998855565759965 -1 3 -4
119 1 12.212978515648784 3.671107363195568 8.341863539808832 2 2 2
469 1 10.084462150633277 4.324170318107507 13.049328412713288 -1 -2 -5
177 1 9.664585311958279 5.532688830234664 7.628732056054462 -1 1 -4
255 1 10.336846209081145 6.015419945956591 9.118508039941565 1 2 -2
800 1 13.811148628115358 3.1242754822130654 13.911345825750052 -3 -1 -2
428 1 9.199815455491429 0.1128591396739426 7.054480924226211 -2 3 -3
165 1 9.315393983598556 2.142787325095689 11.05719882288536 -2 0 3
795 1 8.355042222950985 2.5135243759625223 10.957086169299993 -3 -2 -2
751 1 10.843582652542885 1.9794221113184087 9.65799461318633 3 3 1
88 1 11.830140103783144 1.0822453572449293 9.692344850709176 -3 -1 -3
92 1 11.224742713113072 0.05954969250763186 11.781612349342849 0 1 1
825 1 12.709570632026447 5.240763380254103 13.076822720546726 0 0 -1
433 1 13.32179607433811 3.5647508440139632 12.888900047058232 0 6 0
31 1 9.702581742554381 1.0552673594633006 7.212321844521807 -1 0 3
774 1 10.719462829702024 2.9239032825645572 9.279054559162747 6 1 -5
115 1 9.717951599876773 3.5593891245636824 10.353313068494993 5 1 0
410 1 11.787479768475666 2.181818827393902 10.100450774719956 -1 0 5
226 1 10.368163125532648 1.0198283628410534 8.549052301326856 -4 0 -7
464 1 12.48933022492531 2.8212056579089366 11.019409380438587 1 1 1
107 1 13.406736151977691 1.7138076469238206 9.246171326124538 -3 1 -1
287 1 8.61272018679993 5.545536377011372 10.069264001439647 -1 0 -1
797 1 7.961810744437722 5.73399077811713 12.89347304240016 5 2 0
682 1 7.014375360176988 4.08702736096265 9.182006651437337 2 -6 0
434 1 9.088232495386904 3.431320126322938 8.317823632769969 0 -1 -2
64 1 11.888446403716019 3.3363826959954723 10.040821853898672 -3 -2 -2
80 1 11.549389712571594 4.789202219221464 10.955503784453498 1 0 -1
345 1 11.391091679916972 4.073448324234685 9.693690030890457 1 -3 1
190 1 12.952612520971615 3.7238594557899387 9.931542628264296 2 -4 -1
426 1 12.433357905538262 4.747622649395388 9.28856277215522 -1 -3 0
831 1 12.776168769104576 2.779924960833221 9.087827829641476 1 -1 4
541 1 10.61580933156403 5.604594550737548 13.228987354499852 0 3 2
27 1 7.897413300884839 6.340696431011916 9.786486003850328 0 1 -5
630 1 9.897634287971755 4.8686989987891165 9.91920137204313 -1 -1 2
123 1 10.877306432153594 1.594126293183851 13.75339399469863 -2 4 -2
448 1 8.48003206165413 5.909712392722191 8.592304651702143 6 2 -3
586 1 13.69485649811295 6.080843090670635 11.989513629600392 1 2 0
167 1 13.753865670571168 4.983853779136053 9.612050100643586 0 0 -1
222 1 12.844613532556062 4.556007263420312 8.279993943993178 -1 -1 0
491 1 13.811661674356207 0.34423258776144455 12.961802366691568 -1 -1 -2
168 1 10.57303440363364 5.868927116415778 10.467378597097722 1 4 5
467 1 7.785210834641154 1.3768959058304393 10.909549423881245 2 -1 0
304 1 10.708869603061665 0.8347645973307496 11.260925395249478 2 -3 1
450 1 11.65265611717802 0.042576079866071335 10.58244150451617 1 1 -3
361 1 13.631275804695306 6.724739225136851 7.5965534235076175 0 4 4
821 1 8.327893801045176 3.773051273025359 10.61779478924047 2 -6 1
72 1 8.917402709259738 4.527842603575009 10.217371501561951 -1 -2 -8
562 1 9.300515882507932 2.217192729338018 9.477322159052498 -3 7 -3
383 1 12.00988808227284 1.245927347849859 10.89137113816953 1 -5 -1
592 1 11.583517198204643 2.090917390194366 11.233630345851813 7 1 -2
126 1 11.33492736809567 3.673198082546082 10.951694380822993 -2 2 -5
212 1 13.306742665650782 1.9002152851571308 10.623298437474409 -1 3 1
217 1 13.359705177827932 2.5987742213875418 11.347635364382922 0 -2 0
236 1 7.058426461525636 0.8286749732801971 9.982381370371497 -1 0 1
827 1 7.663541476378514 5.067809844064537 10.89658536593428 -1 5 3
830 1 8.08805113325896 4.135509279425857 12.057103917661781 2 -3 0
333 1 9.989072930128213 5.058329278525737 11.810803044082915 -2 4 -7
768 1 13.628418852913937 4.730328652041878 12.802372221079207 3 1 1
674 1 13.09042659081913 3.8029555576510172 11.299569424897586 -1 -5 1
346 1 7.279979045268655 5.849836903447432 9.049033282586755 -3 1 -2
792 1 7.477518737290048 5.471270582484002 7.752525571416647 -2 5 -5
820 1 9.168330657047479 5.506708391446584 10.961501357964206 -1 -1 -5
518 1 10.163692216325591 4.136288940731727 10.99409534355534 2 4 -2
750 1 9.478041611680338 6.273679290514732 12.679434555370113 1 2 2
714 1 11.475966892854997 5.363754372018816 9.796234645236192 0 -2 1
489 1 12.71385628633989 6.242641935423898 12.543975412972598 -2 3 -2
680 1 13.306421504165035 5.142636998217245 10.998817226171987 -3 -3 1
305 1 10.26711789833798 1.5480486199575518 12.704514259722231 -1 1 6
317 1 11.37610734624798 2.3204411673365932 12.736733669568268 -3 1 -3
418 1 10.449201889742032 6.514940448543342 12.88430008942318 -6 2 -1
251 1 10.66056480253265 1.9694059047010823 11.751753781038847 2 1 0
113 1 12.593325286238587 2.946744361622279 13.618016412185227 2 0 3
19 1 9.132639981200537 3.3959727282652903 12.935119113560761 -3 1 2
545 1 12.314159046847761 4.503919598093395 11.96721222210059 -2 -1 4
670 1 13.945858877894997 3.429966461239391 10.749668560552822 0 -2 1
82 1 11.571152084636127 3.388203183508264 7.049399853882944 -3 -3 -2
281 1 8.289558775843108 7.5304024856697565 2.3704232509956378 -1 0 -5
164 1 9.644642836923417 7.671109259928821 0.010064938544993919 -2 0 0
666 1 7.577062868655466 8.384618421814025 1.1197711606054925 4 0 -2
151 1 7.109662535975955 13.822584458576141 3.026821069449572 5 -1 -2
461 1 11.300208263110633 8.852164403111276 0.3379052033534962 2 -6 -3
250 1 7.196903530383048 13.482421400787832 1.124463655122005 -4 1 -4
766 1 7.806054009128189 10.477875212909654 0.9457399368991841 -1 6 -1
240 1 9.104935032288134 8.0599719481076 1.4981142479771512 -2 -3 0
309 1 9.53127500952059 9.660334270528793 0.33045724408241983 -3 0 3
188 1 10.201223697173939 8.488579757189967 1.808420573782042 1 2 2
390 1 12.691910313507993 9.081919477014575 0.8769102425705676 -3 -1 4
25 1 13.107548763601034 9.750262657775869 2.4418321093919078 0 -3 -4
241 1 7.437101935502354 7.470059403616659 1.554830314730872 -4 0 5
813 1 12.482461021629176 10.39388544953965 2.034873513973191 0 0 3
603 1 9.889707874746374 12.196559914366523 1.0398918746286332 1 3 2
581 1 13.112171414314915 7.489234120560117 3.5526732231469578 2 1 1
793 1 13.606263301283718 13.502811607808892 6.688488951023849 -2 -3 -1
145 1 13.160996317060471 10.456529017110233 1.0549921424166575 1 4 0
815 1 12.689449430948558 11.443927005277196 2.216265857601149 1 -1 1
328 1 7.997343212310792 12.766278795779545 0.875773920872118 -2 2 7
849 1 8.669792640666769 11.724027410018747 0.2900826589391593 4 -2 0
94 1 11.165590521841125 12.411398341258973 6.7673752603833695 0 -1 3
860 1 9.728412928699958 13.72743206831172 1.4768199039837195 1 -2 -2
466 1 8.97820943603609 12.773892320302853 1.7184783781937885 3 -1 1
637 1 13.464094767734778 12.615936304515252 6.1633865991192085 -2 -1 7
495 1 12.062568158323163 10.658891093973644 0.9595474064003074 -2 -1 -2
633 1 7.493857006415626 11.940079774557619 1.2304714550886624 3 4 1
649 1 12.888380649352866 10.718765408267444 6.323252868263305 2 5 -2
723 1 9.610383638853936 9.093971102624248 2.611913809175066 1 -2 4
503 1 10.215404823793302 7.912641654894999 3.60818374405566 -1 1 1
96 1 8.441445389496735 11.393285467040755 1.41157846778199 0 3 -2
233 1 10.941679889326108 7.125728010323786 3.77058489860765 -2 -4 3
857 1 13.281757862715123 8.485750781636659 3.944693536729892 2 -3 -3
389 1 7.793614861540311 10.161661527131564 3.83905651613405 -1 -5 -3
130 1 8.930764827306119 8.386703142481576 3.8027884213561074 -6 -4 -1
329 1 11.788371645775602 8.243200165316452 1.9364568527533768 1 1 2
312 1 10.748560552030815 10.255046424595218 2.218019932430872 -3 3 -2
435 1 11.050644291580214 10.52528510782586 3.716693741587725 6 -1 6
473 1 11.741339837631987 9.524672559919214 2.297456000268973 -2 -1 4
242 1 8.378330011750363 13.622850046599604 2.0002045672171382 0 2 -3
462 1 8.598464940055118 8.892380362154018 0.9476998086352645 3 -2 -2
756 1 9.118651558275918 10.390314034296997 3.79208607725675 0 0 -2
396 1 9.339682932737668 10.699131275059976 0.7876542009474192 0 4 5
139 1 9.198133704653408 12.838269561951122 2.739028538992408 1 -3 8
89 1 11.73896166215015 10.645960024596567 2.7998190750862926 2 -1 -3
707 1 10.160187203208842 10.86243988355164 3.119169667550419 0 -3 3
338 1 13.477733474455313 9.828117151911233 3.315977291476245 -2 -2 0
628 1 13.529212324744893 11.113429251402362 3.0270752987838527 0 -7 6
48 1 7.605573866088787 11.61700328528637 3.571977613896927 -2 -1 2
263 1 8.148199592087408 13.62442322741739 3.078474516594141 -1 2 1
321 1 8.731274539404586 13.197129003786882 5.293577610741254 3 1 -3
406 1 8.68154174437746 13.192329794519308 4.119320633679857 2 -3 0
765 1 12.186050792277337 13.742426877817785 2.049977897832363 0 -5 1
601 1 13.000166720877221 12.427670951857205 2.232892991870578 1 -3 1
398 1 8.072900098015932 8.023636522051849 4.136072372497373 1 3 1
801 1 10.56653936742931 8.90562312482232 4.572935896943871 -2 1 -4
457 1 12.514041558596002 8.441742264219421 3.057571565657598 -1 3 -1
272 1 11.700018640423707 7.731397305503208 6.9480142717283995 -4 -4 -1
569 1 11.245702527223601 8.421146060974033 3.9752486053812883 1 -2 -2
348 1 8.36802149276584 7.008647353519456 4.388819581671756 0 -1 -1
844 1 12.32416834281203 8.408213284066546 4.722888798599195 1 -6 3
540 1 8.104661330890178 9.222083031650287 4.200713277529006 -1 2 1
189 1 9.103073932410078 7.4701479085336695 3.0229114633852663 0 -2 -2
192 1 7.677077626885673 9.721742418928732 5.919897163658856 -1 0 4
554 1 8.58079194496447 9.683328826390373 2.757132233636508 -4 -2 0
855 1 11.197019218643055 9.101559051600061 3.09734576606237 3 1 3
861 1 12.196851496249053 10.341346196290662 3.8278084735781404 0 -6 1
163 1 11.39507247636244 10.487833900288491 4.841822350925516 -4 -1 0
122 1 9.005647458587461 11.63637077686481 6.382434471654789 5 0 -1
605 1 7.632216745657905 12.431397832233209 2.5154928189874015 -1 -1 2
694 1 10.026612805020982 13.563400611584925 6.4076949537475345 1 -1 -2
238 1 7.577365419962884 11.216515469912142 1.9169309853738496 -1 -1 -4
289 1 9.14939604501002 10.966239211523016 5.541139131128969 -2 0 -6
783 1 9.658445064668882 9.065078567185424 4.170350501503841 -2 0 1
835 1 9.7974578915144 11.647675352275723 3.8138991310685078 -1 0 2
697 1 9.666270421998503 11.838869370834587 5.190028470321915 -1 -1 -4
76 1 12.455996027692674 11.179142000111314 5.011819306720097 0 1 0
474 1 12.377705647551236 11.283648785635876 3.473839612476736 -5 1 2
506 1 13.36071130262748 12.97556149208436 5.238729108915657 -4 -6 2
63 1 13.846111150957482 11.19302962024978 2.11747501475327 -1 2 -3
282 1 9.801197987146741 12.639562966578492 3.6376595895833965 -1 -3 -1
618 1 11.07888325392781 13.655327200710271 6.467977058994613 -2 -2 0
318 1 8.733040040210412 11.950516546655319 4.789471586247933 -4 4 0
538 1 8.675782860266704 9.989019792827728 0.9213813584869143 3 -1 3
662 1 10.47671922175074 10.734273925480748 1.1911741091826016 4 -5 1
826 1 13.418944454345958 11.707090555507694 1.2096443888014172 1 -2 -1
785 1 9.646165131698014 8.99024358884839 6.309802488919275 -4 0 2
665 1 7.473229550195847 8.631921533357543 6.248506294388581 2 1 2
377 1 13.632396356476548 8.8253852806655 4.811327861155744 2 2 1
567 1 8.864618640959293 9.91712612759481 5.80759978083267 3 -3 -4
781 1 10.135790229705384 10.059070087504269 5.6014478474575675 2 -2 -2
828 1 13.903172151943307 7.1446341765780295 5.013470262855114 -1 1 0
313 1 11.690537736621126 9.520798622497708 5.820754746234056 -5 0 1
481 1 13.094261394421634 8.559693529385443 5.9255146562604875 3 -2 2
643 1 10.668133425839809 7.72578420459707 0.3179255104355378 -5 0 -2
95 1 11.981998357167479 8.167900486704315 5.639148680039482 0 -2 -4
807 1 8.053970394610623 10.619938807192352 5.237271226609582 0 0 1
234 1 13.303670243538015 7.114477067014512 0.2212335146817241 0 1 0
186 1 8.412817078971466 10.629235090813923 6.588827638768564 0 -3 4
269 1 10.126266074526283 11.226569215396065 6.027867555845002 0 -2 -1
335 1 12.774277919423552 11.405841708342347 0.2819931686265189 -4 -1 -3
268 1 11.221965228696801 11.27490304555541 5.851488508374569 -4 -1 -1
574 1 12.226170948647484 9.593428980652737 6.663518292276912 3 1 -5
355 1 13.649953133926894 11.389149334610494 5.962814255032181 0 -2 0
29 1 9.345483689525114 12.97230306574074 0.8013138446200102 -2 -2 -1
530 1 8.436200297544715 13.57055334955907 6.4200360946513255 -4 2 1
710 1 7.690864659719851 11.614069656080806 0.20451055929150017 -1 -2 1
764 1 7.616003599447244 11.687839509587201 5.827424625042723 -6 2 -5
609 1 9.904913962465253 12.457359736096295 6.508396349896204 -3 -3 3
779 1 8.293641976682851 10.546936099154465 0.01792356984782638 -2 -2 -1
748 1 11.35957472147901 12.57095258546455 13.585041351813091 -4 -1 1
515 1 10.103037617597833 8.28666294142717 8.536555149931527 5 6 -5
542 1 11.72832520539755 7.004379422126615 8.008622663658866 -1 -2 0
719 1 11.770832277285258 8.663935168283533 7.880299278442923 -1 1 0
415 1 13.891734939830673 13.265759102669335 7.805390074338607 -3 2 -3
693 1 9.004564491191326 7.445430955543549 10.341711992091904 -1 3 0
730 1 8.322592102325292 10.913383141996443 8.50973837346583 0 2 2
482 1 9.367993071939775 8.504317429587092 7.250651888361857 4 -1 0
264 1 12.162001658158669 9.399401764283047 8.7788931830945 -2 -5 -3
114 1 12.236260564419771 12.692478327738504 12.199985360056344 -2 -1 -4
208 1 13.075596833635757 8.729082881310099 10.020646288393003 3 -2 0
407 1 12.717862812286723 8.27756450905277 8.640545341516695 -6 3 1
218 1 12.831848970206078 9.404172393861451 7.980479358652397 -5 -3 -2
292 1 7.97684631749049 10.444797534727394 7.546315315200198 -1 -2 -1
91 1 7.161074195971595 11.019542515910308 8.114719481932434 -7 -1 1
342 1 12.697340712607597 10.090289816803633 13.65122559521183 -2 -1 -1
53 1 7.250649903046932 11.5642645748291 9.055046142252877 -3 -2 0
536 1 10.930783510195523 11.603080360739712 7.41108215984241 3 5 2
661 1 12.25166487406583 10.460943061857524 9.520062079693155 1 5 -2
613 1 12.862338489168243 12.778836070973993 7.940882911183684 -2 -1 1
716 1 11.572313387348467 12.6964736278919 8.68406819810238 -5 1 -2
560 1 11.221637863286261 13.210420898197674 12.845159798383067 -1 -1 -1
822 1 9.46141734512024 11.713594737272325 7.347564541207593 -2 -2 0
140 1 8.112252967965818 11.435697177706244 7.250270198464557 2 -4 0
392 1 7.458910888023599 12.48616406486079 8.182429080720329 0 -2 3
739 1 9.03308215606822 12.905629955530554 7.0567358049964755 1 1 4
591 1 7.207302643625308 7.528099711198252 11.470847562510395 1 -3 -3
206 1 11.98189879068102 12.310720193134195 7.507916473058991 -3 4 -4
842 1 10.230056061746906 13.345083471576572 7.372092957177769 0 3 0
638 1 9.317270015546876 13.367627515407639 12.714337873189715 3 1 -2
373 1 12.960119238838967 12.183885986529466 8.937364452401233 -1 -2 0
381 1 8.853011469476293 7.693916174780079 8.954353328736113 -3 -1 3
3 1 8.113875994443267 8.116541888851375 10.32848042978121 1 0 0
224 1 11.017211167263111 8.946583235763734 8.640741154882459 4 1 3
30 1 11.62169570792606 7.986756779858329 8.618952043128878 -1 2 -2
438 1 13.281138309719388 7.5202881339313175 9.548302392400311 1 1 0
315 1 10.60290216717156 8.938152479910476 7.468559749376617 -1 -3 -3
146 1 9.185355057911593 10.162894055702028 8.753204427213827 -2 -2 0
531 1 10.231015870586935 10.44021204607548 8.573274663096294 0 0 -2
120 1 9.694478562617013 10.165096297906443 10.638063266225965 0 1 -1
420 1 8.111508848285297 12.628331797054452 9.840152920051796 -6 -1 -3
423 1 10.051568833871569 10.867459436648383 9.811306642759158 2 -2 3
185 1 10.932418952268584 11.500665719431511 10.66581757667665 -3 -2 0
247 1 12.5047560003142 10.63054052413578 11.351406077998943 -2 0 -3
573 1 13.799724392026974 10.640829028512558 8.024748260397478 -4 -4 0
223 1 13.955858699572948 7.37198656524361 10.35272269172046 2 2 0
42 1 9.67588558001128 12.23131891450837 8.35126768765191 -2 -4 0
673 1 9.153007789127631 11.706254359854968 9.181934573405057 3 0 3
686 1 8.863705320747666 10.549063558542692 10.129383796669988 -1 3 0
436 1 10.135480718126038 11.811291120089006 10.229766191748238 -1 1 -2
35 1 13.536126975991815 13.948395131633443 10.213863554879385 1 0 -4
259 1 10.869764318534088 12.151692641331195 9.647638754084044 1 6 1
52 1 9.245189625267942 13.814984305342058 8.061684802712296 1 -2 -1
704 1 8.661617925138074 7.190298072615485 12.49519728630971 2 -1 0
655 1 9.183555195215117 7.579031895879357 11.423453190659929 -2 6 -1
808 1 7.265482797305201 12.562327475429282 7.138986323009619 0 5 1
453 1 13.49006147328784 7.720079616093008 8.152225822842812 -5 -2 2
475 1 9.779184603344682 7.348403200074394 9.51456293384655 -1 -1 -1
829 1 11.23610317515081 8.01314104811153 11.826453291033735 -2 3 -1
2 1 13.563324749697607 7.7655741999015175 13.324404118015952 1 0 2
840 1 9.390425617218497 9.925691649602985 11.699230342275634 1 2 -2
516 1 9.764191124381307 8.993045660859655 13.044678930861727 1 -1 -8
273 1 11.75998016244439 11.66334171941514 12.318768981178668 0 -1 -1
689 1 12.46471137196185 7.2528445689874 8.815801728639798 1 -3 -2
202 1 12.358940159850874 9.629879328879097 10.842328867288757 -2 -5 -4
851 1 13.299653360223312 7.96157807076357 10.873011531212846 -3 -2 -2
812 1 10.016124282626892 9.831284431598611 9.521787648713337 4 7 -1
117 1 8.371887250151563 10.627257945384608 11.90131393942222 0 2 4
118 1 10.617362683807727 11.773091270434845 13.912245903552728 2 -3 -1
278 1 10.543823068226724 9.592573922898364 12.651890673630085 -3 2 -1
17 1 9.974731659710754 11.193867915551422 11.048280321346738 0 3 0
588 1 9.847532203760549 13.192429279643626 10.721006720243865 1 -4 -2
767 1 10.190490000917915 10.50422559658083 11.761941227037294 -4 0 -1
284 1 11.568242604031841 11.072652418340269 11.453593829323175 4 3 0
275 1 10.411517245898866 12.24621548980608 12.611059113066448 3 1 2
274 1 12.746334095893847 11.82548203804873 11.465746129794603 1 2 1
564 1 10.33186799878016 13.339334777717585 11.924583749315358 -1 -3 1
359 1 10.54703866888584 10.617628653016608 13.158542498490391 0 -1 5
59 1 11.260506064720692 13.714035633593962 9.124453245755491 -2 -1 0
856 1 12.009433492619122 12.222974858702525 10.372999848666828 -1 -2 3
68 1 13.170981300640342 10.120396134152967 9.695799807769792 2 1 -2
339 1 13.109276072422993 12.628692208267603 10.129840077453725 3 -1 0
838 1 10.377852836196666 7.104290306488083 11.658049619751251 1 1 0
103 1 7.7515813373759475 8.570610723309029 12.837087717812125 0 0 3
421 1 10.582383990513954 8.0824551991785 13.30394693816815 2 -5 0
40 1 9.052522594060767 12.456218613658715 10.412803326133899 1 3 2
319 1 13.853808517227323 10.286168403191772 10.90780062369544 -1 0 1
784 1 9.540998546292204 10.509975431817942 13.664646084773308 0 1 6
47 1 13.485339311814853 13.455236214776832 11.478401820585423 1 0 2
512 1 13.371081474593776 7.938638554231916 11.856877404487811 -1 -5 0
121 1 13.591470659698087 11.954008676565115 13.623372016790794 -4 4 -4
585 1 12.712648529895652 13.388384064514607 9.627799210255604 -3 -3 0
810 1 9.485290921756992 10.811704708236306 12.665532484645105 -1 0 2
494 1 7.441120394839086 10.46780783875895 9.097449286618197 -3 -1 -2
431 1 9.369578423812154 12.382529936456024 13.442285964981814 3 0 4
124 1 8.521578512465043 13.471927049623073 13.794008484665301 3 0 -1
111 1 13.48511864580347 7.112182165204466 12.427444234996837 -5 1 -1
577 1 7.688027618262513 13.455272976891377 8.883571876341266 -2 -3 2
325 1 12.813111080273222 8.881039244927086 13.799606807819938 -2 1 -1
368 1 13.845312160704173 9.331875707084349 7.5412546889167515 -5 -1 -2
735 1 13.816901918204962 9.814482095449657 8.619821085609974 0 -1 5
300 1 8.971194787760215 10.214867282318702 7.663100516881559 0 -4 1
46 1 13.835296745524134 9.365187422472951 13.794183420161007 -3 2 -1
760 1 7.112866908133327 13.243984643266343 10.372001849087974 -2 4 1
98 1 10.274026340018464 8.943190174338438 13.928245281052305 2 1 -4
804 1 12.298036782408174 13.216729953769596 7.023420075961278 1 2 -6

Velocities

148 1.2291303681299843 -0.6156326913950095 -1.0703120132526394
358 1.1617462941169603 0.28377096191028545 -0.01562312012178489
290 2.2306495325556255 0.5545338104127279 -0.2922637960404348
841 -0.4424275494098875 1.1180460222572253 -0.805609107929878
501 -0.8075270715957684 0.6141048937486331 1.0360361114250098
227 -0.6593994723805393 0.017128003018143857 1.2324483393190653
246 -2.025359176770054 1.1348424586563717 3.608375127025027
303 1.337044783629067 0.6955576468576191 0.37609708439319367
109 0.4260773191252411 0.21677022121722025 -1.9980267306440773
744 -0.16560892340587338 1.955991801773942 -0.2144701968753391
276 -0.3179309242344572 0.2176957843665237 0.13990736377843357
547 1.6629712523500608 0.7065299466809782 -1.429161047217038
553 -0.14724119483450987 -0.7402786709936502 -0.6583961784723885
363 -1.8401455118181698 -1.2874586689937475 0.11282243888055156
600 1.185197156235743 -1.6669773589893562 0.46428850545488676
563 0.8389113080245005 1.0215695754411023 -0.007889230367740049
54 0.947804801521643 1.7379308930142319 2.404449932834647
715 0.844887565305877 0.1925440336007526 -2.10959387824591
24 -0.11038014523877704 -1.8570332755329395 -0.8912834268124706
497 1.4192785634041616 -0.17177538251130062 -2.172189249138663
721 2.490124038239245 0.9942507854256972 -2.6309170204829457
510 -0.37422853151347324 -0.28746728523503484 0.520088250357697
85 -0.5161835599172502 1.7523696329460212 -1.436880956365627
629 -0.5250908816178205 -0.5269460171545258 -0.5512806126725183
295 -1.3486373673379224 -0.12314670704758858 0.8671505474974253
692 0.871446123528715 0.2690597154896529 -1.3130860380764764
711 0.6887348108104391 1.6811753029153216 0.9476604079111344
656 0.5693730353932627 1.6900449784226268 0.16400908995136043
298 -1.0526343529120943 0.2407578208939155 0.08112525182019034
301 1.6425460218148182 -1.0326190887369366 -0.9293438185585154
703 -1.2137051048332688 0.469744926562615 0.010798154838213368
22 -2.0995093858696694 -1.490548964156849 -0.06863417708365883
176 0.14681787443966335 0.1899707709430949 -1.28100823407681
376 -0.5242397602629115 -0.9540686525530649 -0.9297648605490079
37 0.5981622087659539 -0.06979170485220634 1.7812648022715305
326 -1.0638762442235923 -0.2953666557571048 -0.8282880194183365
602 0.9995903997391098 -0.19348903686632213 -1.9426051054332611
138 0.014710771827732809 0.05158115158911472 -0.38916238374586104
699 -1.002597718097427 0.057911166204106065 -0.9401855210818081
452 -1.0688915864079407 0.9907933098239929 0.8555002027640726
565 1.9150277555545776 0.8127862656561837 -1.6790257757375437
771 2.0823410718702946 -0.80329360655765 1.0862228705712331
459 -1.792575587297217 0.09037329110434456 0.9923852032890296
51 0.5396472817294232 0.7688190570821175 -0.7362270225051312
578 1.3542877413315546 0.2403913579094446 -0.9965783223399104
285 -0.011151878048418728 1.4331930158250394 3.258654372729119
796 1.090624059026772 -0.266456724030864 0.22778608937585915
311 0.7714174575150706 0.6307498403698424 -0.6768361081483141
267 0.2058425921471373 -1.7499094641809476 -0.4825422903090209
749 2.1194869332200046 0.020084308562911938 -1.062770188952861
439 -1.8113110260992047 -1.387736853641252 -0.46677720404305867
671 -2.136096272840702 0.7240813515659137 -2.7007142626549103
754 -1.4218831097722964 1.937102290797634 -1.5974783257109526
178 0.20264647651325016 0.43279127452104255 -0.7918801535360145
1 -1.6060462838018126 -0.5907747563387287 0.2915909798111024
397 -0.189067296430001 -0.8758734382447984 0.18913633968967927
12 -1.063138059860715 1.5583555706425143 -0.4897628596948534
425 -0.11656308798120221 -0.8202032285894444 3.232429048630474
343 -0.6064524016271865 0.5125878694565709 -0.6594227030771115
393 1.3045719262129003 0.654089302498451 -0.8975434732636872
171 0.04370511292511375 1.460638124084288 -1.6297843679779378
814 0.673280871876432 1.3289477695187983 -0.08837791868225607
640 1.1742046190220763 0.27609905137377333 -1.8914805144453983
331 1.6064475612958107 2.057809068083116 -0.5262380444625142
235 1.003930087274406 -1.5030025037781287 3.221038422466406
606 -1.749797224264284 0.947280980681878 0.10948115361378531
624 0.009053469838234844 -1.2821821755868616 0.34759496705464266
500 -0.4316434634927794 1.3305120270899282 -0.8010959751340713
747 0.8044685139039608 -0.4770123673915851 2.1474369713435943
544 -2.293826561188764 1.0339326862104992 1.1593517723318203
442 -1.6382214680484655 2.2980372747698596 0.05768804782640524
521 -0.04352023194873929 1.4320148011289253 1.3437014738432467
802 0.32973638874301314 -0.29720573536076444 1.1706788578513805
112 -0.12732240803834582 -2.0160348617638792 1.2205953696454812
409 -1.2484596120438889 -0.7763496090724231 0.3351426758406484
232 -1.9622116817250241 0.7763734921605766 -0.5455977291141806
58 -2.33247244650298 -1.2084087899537455 1.8401771696281939
758 0.3543135873421002 0.9720757261427291 0.43197636167426
173 0.005925211166869218 -1.2998569285059638 0.32122866211360396
10 -0.29111765771814824 1.2817306711294938 0.42315497289654946
193 -1.2310492163858202 1.2376711594194365 1.6286807738709648
44 1.3173759248216588 0.21749830219283786 -0.09953479882349073
219 -0.8891752850220199 -1.0559800140128173 0.0162994758225123
157 -1.512525349577307 -0.27626889899722107 -4.580913709766717
84 -1.535683060226607 -0.3227781436558504 -1.057036544968144
422 0.17442346698404554 1.06546560973151 0.031982207897458065
539 0.10692358468558619 -1.5388934550406517 0.08110760678625131
631 -0.011292320730163126 -0.6346796130383613 -0.6873316748264365
763 0.9459454398405461 -0.995995588465181 -1.388798418706503
6 0.48758258816810274 -0.06860566030403097 0.7871100386642818
852 2.09258490880746 -1.1491927634999943 0.860829739760968
43 -0.19823905870600353 -1.3220333470391201 -0.4639494639769287
141 2.11292359248163 1.1526505855621323 0.7090669893244348
770 1.893441460384519 1.504815444186433 1.894971365430536
590 1.112978907466252 0.05901575766168709 -1.0724271612202347
527 -0.4657112254590158 -0.45233315003271374 1.4816336707017679
38 0.08083644180623295 -2.554441714145375 1.1101903359176437
700 -0.6162003077395494 -1.0053969082231173 1.5234899653509866
535 -0.2668368179702611 1.8798146617277496 0.7217771150284781
594 -0.8187806203170626 -2.0893654639705823 -3.0938159979712765
414 -1.23549156341014 -0.7063725325892801 -1.5510050592723814
83 1.5920919663302124 1.7953538464962653 -0.38332583636743917
99 1.3511567429369122 -1.1095268625090238 -0.4482879354673692
657 -0.4426626596756983 0.2640072696741441 -1.3405405947112963
794 1.3192018910534817 -0.09325979155637147 2.1305003051600804
816 -1.7967859936148693 1.0536588542973937 -1.4238807521735528
49 -0.19068662093880692 0.032519755682617536 -0.5195455683964159
551 -2.1242540094582876 -0.21192413848063607 -0.3613284311021506
789 0.019788358580440892 -1.7745806456572468 0.14752950319845914
441 1.0604521599520518 0.19113839006409827 0.7895225168943899
761 2.865961237155287 0.836961874037085 -0.7150749648956768
611 -0.7535552571399871 -0.9414215892987078 0.725211432209288
669 2.4730648017644725 -0.7338730511458368 -0.7446206687523584
509 1.33163758070937 0.9459024047905217 -0.37378860226272964
690 -1.2689197302671682 2.4015854331246747 -0.2436603085907046
490 0.007655109568607761 1.989963212959336 0.8451514712366706
552 0.7529828272551531 2.28393535682462 0.12445356642968157
324 0.8082164298085678 0.8594643084857636 0.052338812347670884
132 0.9033229367994684 -1.3936460361525735 -0.08670284517656833
598 0.3008164761115808 1.4185166734343309 0.8885274549689945
183 0.8294019982140362 2.199597576577308 -0.082056402539537
823 -0.6507290515600369 -0.9369823063418743 -0.9269165217534366
472 1.2380976670302706 -1.5832376940377084 0.4992865168381851
135 -2.233198784603748 -1.4033977530909003 -0.24129063340379667
647 -1.0144522762359143 0.7266716718637273 -1.4646817715846132
156 0.7857997707465975 2.446046475704979 -2.3451247354245237
788 0.29108310291846595 -0.28737634474598056 1.817523388911425
579 0.4832002627692031 -1.9742943568881353 -2.873173056683254
486 0.41502148400530986 0.977639728319979 0.29439967057957933
556 0.9573454259972602 -0.9425871012833753 0.9783519461414376
28 -1.5315533910960926 -0.31094496814114897 -1.44212724355942
194 -3.3245903032645647 -0.20964724158152903 -1.8281588820236057
477 2.787238340368447 0.3908664292900181 0.9526103165306979
153 -0.8974886923237313 3.5643633803383596 -0.10596426706643029
548 -0.9950094785218752 -0.01699640667067834 2.4881467213362916
214 -0.20250749751593308 -1.8773914412256836 0.4294042297478802
627 -1.2605146824224822 -0.9068884268349647 -0.09409866493261858
296 2.2047299055348923 -2.0057369349891183 0.7750565236005909
854 -0.20322874477466557 0.5115507482851196 -1.0485539162878068
403 1.0445501503828087 0.40687766200406006 0.30710560575942697
684 0.8550000687409602 -1.2057534499843485 1.1981107792182362
55 -1.4339314401600116 -1.2446234288534244 -2.6478788810421205
370 -0.620973366343352 1.127710849578716 -0.13425331390465517
213 -1.3860537688244936 1.4546285335429874 -1.273823186036247
23 2.2493128644670968 -0.8626355242230767 0.0876419631156435
306 0.670905351737519 1.3580367573972831 0.052800965467645254
596 1.624023502496519 0.4894416940039578 -1.0000607448935614
664 -1.2711104907378696 1.4325674801698471 0.5790877081925957
576 -1.8146231514072606 -0.3317229384505402 -1.6078206384754103
685 -0.30715939518702934 2.667974801786157 -0.9798860092411412
595 -1.5303368825216692 -1.1889988920444108 2.659226589031972
731 -0.9172470359134471 2.8107759017312786 -1.57822899604778
679 -0.20725551963122008 1.0781606472890433 0.0007564969660638374
77 -1.4461381538249765 -0.06680151369024923 -3.097922426275508
706 0.7275196880474932 -0.9646657616014392 0.9283902561676669
86 0.6400060639274469 0.8415362806034047 -1.0954753935633732
155 -0.8296227739101132 -0.2990089417909275 0.6506184056921754
561 -0.1599509321280633 -0.26970357818956725 -0.8755431902689835
106 1.8609816302432276 0.7465736567179703 0.1531222368448458
688 -1.0524753692878757 1.595841467272643 0.9774651524016876
182 1.2253214513195003 -1.2658971375368373 -1.319038901674352
152 -0.5827719589205299 0.5883755138624044 -1.6383459844170178
696 1.0612359075250397 -0.3440673932540879 0.7550854755313321
154 1.1658003554585221 0.9878008992257917 -0.9355738807080025
622 0.8584871368045743 0.001570622242732931 1.417070940206519
256 -1.2372515368371406 0.22371969151632365 -1.2715199645884807
16 1.7102682026544194 1.3384824346566917 -0.6689656336552385
374 -1.1049199981566709 -0.6966982369967757 0.43372452366320874
257 2.108625893788301 0.7754585485813159 -1.9386993592308508
8 -0.3167336031395993 -1.8239585702027974 -1.0163351026624006
683 -0.4503340440230367 -0.12303436594443491 0.21530936569020181
571 -0.5951361462119877 0.8311993297245572 -2.4248998128632135
209 -1.145375655146613 -2.1540725351858643 -0.3860913435425075
79 -2.3038713770899557 -2.061873147523375 0.011077094374477493
809 -0.49077955897643954 0.41514472579279876 -0.5743367918630562
587 0.31965007526428557 -2.002492217298788 -0.6773595750627803
159 1.4961889102208024 0.37018414354655116 0.793297650436205
463 -0.4860126233462099 1.3715136655743525 1.5317341474475266
654 0.4931100762260827 0.6915457104873668 -0.04520856494350618
36 0.012924060568690323 -2.693798817247564 0.14064204922494486
698 -0.7284386665498218 -0.43623346735966534 1.9386171315189153
728 -1.0116922656232734 1.8640693439517126 1.8695620791675895
320 -0.5816258129972331 0.6191344049720288 1.9580466604312843
762 -0.23741702634215076 0.7823728940848905 -0.11302989007363085
280 -0.9685289578533104 0.748468979050507 -0.9441030610444765
533 -1.359815513503225 0.5384271345921253 -1.189793650257444
863 1.2808795077721686 -0.05986033209487666 1.6427451447070214
620 -0.07557668341954621 0.8830263835701475 0.7053956567967453
811 1.7993547650215933 -0.22454290586119208 1.2807742947603278
502 1.243007653280276 -0.6460045671300138 1.10170955714411
651 -0.3576602200859504 -0.057667396004480224 -0.6048454611376543
705 1.5212991895314891 -0.240926203504679 0.2014925151964612
443 1.585516416860668 -0.2883748997202611 -1.303684594665983
832 -0.11441629303006363 1.0897090556901083 -0.7192826487767687
262 -0.5957202626021681 -0.33509192694701806 0.6117732726146073
517 0.46061337804670394 0.7061365955942647 1.4707605201617129
848 1.570669331336921 -0.8784933130938235 -0.6418242809983083
128 -1.2280281770085821 -1.4134431941044066 -0.8635179720120782
642 0.2330133564313492 0.20182079282350543 0.22675022893511884
681 2.369986851631203 1.4233172491289177 -0.6472655348074836
864 0.5987015972878722 0.952915140599435 1.01652825355101
330 1.1819114078679753 -0.6488968328971453 -1.5920955367690386
230 0.3118228384490676 0.3978315923841149 0.5991947142893814
479 1.4778401916220698 1.9127365950652182 -0.20735455079330037
672 -0.08645349023119552 -3.4772625604796015 -0.22960059853591602
310 1.9594281368854922 0.3361403432005417 -1.3469405829289394
546 -2.375675107778162 -0.03054988154424568 -2.4163476231786913
170 0.1541221984328202 -0.05079181130914266 -0.7752688741914344
465 2.5621837064544812 -0.12238189236432026 0.6845832180925765
417 2.6407366358204496 -0.2098622445117584 2.209804392684812
365 -0.0829183809339562 -0.3456033481378792 0.24640781346596802
400 1.0325492272692764 1.094507207748466 -1.6876211563255876
691 -1.6076790049401946 1.5797474396537765 -0.6254527528443768
650 0.06923498364113985 -0.024169357835684562 0.05516666295992962
283 -2.864997370447762 -0.12218351833274568 -0.05406401373442053
166 -0.8535706008619384 -1.4054967974486232 0.3657584273853103
60 1.1759849449231152 -0.12629901908324945 -0.34713816726762103
258 -0.41845813819336564 -0.46566434279983804 3.4656957258665266
13 -0.20030417694346855 0.07700655219200297 0.19567441656402826
15 1.0929025601457243 0.2674776744369861 0.31495297848494463
108 0.32128288555327195 0.23867719209926985 -1.5635567972109634
100 2.9096448877472096 -1.9796356261823274 0.5660697694367152
773 -2.16575800180778 3.0998577720379243 -1.3890687944810187
645 0.25300473005498275 -1.3570464254097887 -0.8064320225117205
725 -1.2065542442982673 1.2008420723681164 1.9525163549163975
191 1.1405558726208123 -0.9355957600699463 -1.4976953743386452
550 0.4987265763517841 -0.9441893083466648 -0.11768306779067694
776 -0.8415303469683151 0.7108208976798528 2.0973356266548313
446 0.8483914895158549 0.2950910451401844 0.7876688035580074
158 0.2569897822394441 0.08780292714114482 -0.15340044129498967
196 -0.4585315604248384 0.3140053639540383 0.3100026740506916
555 -0.5696224778982751 0.2894888188660368 -0.5585514085959048
371 -0.6024588175950717 -1.4464049182060434 0.5686919180096245
687 2.3470425590298216 -2.144378231333329 1.7787346220466171
799 -0.24185307776495887 1.0296940471865825 0.7687397307324754
356 2.264506349002007 2.1206928889739984 -0.7447270348667331
307 1.5235609436310587 -0.025445280435264634 -0.14486983422867494
619 -0.5706709466693902 -0.42330869853964687 2.5191488989253608
254 -0.7832182775737615 -0.89974860487639 0.9195820472302867
718 0.5537479132801848 1.4397325618914396 -1.620469344757553
337 1.8255292459984325 -0.10445180442890291 -0.7896682251903467
837 -1.621137412452152 0.5611537922736021 -0.5632893020935045
778 0.4973431284343271 1.7336376416592354 0.2017789776534566
635 0.4673927650909665 -1.3136913369691783 2.961119407335145
20 0.3291954399841137 0.5598796863222224 1.0157066646917583
210 -0.7484899955648752 0.14468344692092305 0.7654523575083116
658 3.2659277166288487 0.7692089971056887 1.3022601285803979
659 0.9307458361440967 -0.11739970245164144 1.103228874785758
559 -1.7000471931967083 -0.5057843988612998 -1.6754362353991878
646 -2.7126726889663377 0.004322803792983866 -2.7554872550249394
460 -0.6065257025012384 -0.8843246931696996 0.703804563988205
836 -1.8690267612927625 -0.33250035625940244 0.7143943157364181
572 -2.114158272977898 -0.6864123777544426 -1.0788286221601444
387 0.2550408824376431 0.5735318585203221 -0.9999928739033096
294 0.21896385542324032 0.5950759868385873 -0.3076060341998059
67 1.6728591354115947 0.6035827492711227 -0.30800270066340185
297 1.9937190964048528 2.2890715662300503 -1.5633040388978514
847 1.2225341301086616 1.09327276994174 0.2705266317795181
504 -0.8278040723390437 1.6066070897758282 0.7834046910605116
626 -0.4582520802871764 -0.3619526550425994 -0.2046738345409871
608 -0.7681518955275509 0.6577385673903101 -2.101247919740318
375 -0.5018308346793277 -1.3374665705742677 0.05116087596606674
759 1.4595729755952005 1.880403954554618 -1.6578815461530902
350 -0.012753281855913042 -0.48603812061820795 0.8461601218906402
717 -0.5750934208176497 -0.9499184972676632 1.4538069853232658
610 -2.1042654963741034 -0.13291787860111134 1.0871917239528495
394 -0.08991387330518515 -1.8115244977079275 0.32264110227613585
805 -0.5024184271441503 -1.3627419465080874 -0.030287281521827632
570 -2.325207341784367 0.8539241596962498 0.5793010547665359
623 0.5955218175480707 0.8349541558986646 -0.8621639836125709
757 -1.0549328937769449 1.2539763529053791 1.1761070890821017
195 -1.9069138010876407 -1.3450237025837828 0.40340113996457555
430 -1.199187581925541 -0.49537465260464886 2.407717629696764
231 1.9494511237521996 -1.405020848394267 0.7640236641291307
449 1.296085536534362 -1.748576451130723 1.0121766773376655
557 -0.3011697870804549 0.2517997252836045 2.0145559364190286
511 -0.08034111632714946 1.2419184493723743 -1.253251544833911
302 1.6895864775153318 -1.7570219507730205 -0.35508622174028254
5 -0.1422068519420614 0.27091011224636613 0.5054763551686746
353 -0.058190121746251065 -0.4231195294039599 -2.3872592983585816
181 0.2580431114697324 -0.41080808631643756 -0.15426727464697876
508 -1.8492377740041703 -1.6045644648264126 -1.9330264579122798
525 0.8302542231707909 0.5403460260531149 -0.7173604870109905
386 0.6325259114967324 1.5450306741486253 0.9004204214246703
7 0.9025598456984698 -1.4274732115340723 -0.42992157877591813
201 -0.5827906587767564 -0.6386206869565957 -1.1192782026357793
21 -0.7101577564013498 -0.43167208847350286 0.6690678109978602
741 -1.1463998576077574 -0.9405157477362878 0.16052509750517108
379 1.2145656769391298 -1.08109250395142 0.025784301447881318
575 2.1757159492847324 -0.4952727944885372 -1.8369512647613486
612 -0.12258215379493784 1.072982893128829 0.04266029953604426
105 0.1391903415980698 0.731745883951031 -1.323679847228702
11 -2.3571130877462836 -2.0837289003424835 2.45444178708567
584 1.0413656794951063 -1.0601701744042722 1.3713594843718209
322 1.1751354346977765 -1.5052644703294258 0.15145334407589123
523 1.0845422581348334 -0.7758344820624847 -0.3567322307015197
755 1.0390997608270907 0.0821797272564874 -0.5002359687729706
653 -0.301477112748501 -0.6064866202697831 1.4030192429586825
33 0.9477780472542351 0.13832234624884918 -0.6459295963809061
488 -2.305430734108114 0.9259401472456696 -2.3034792630188523
401 -0.055895923295829555 0.38507286472031854 0.6953933595548615
782 -0.7654791633931346 -1.4568719802256997 0.8742859514977755
726 0.6397855665658919 1.0565048336446523 -1.165148850373183
713 -1.444005263296079 -0.5682071359756433 -0.30700225666636394
369 -0.24129735518691195 -0.20781195006909603 -0.6470780993076961
75 0.44098585400649937 0.7139087972291319 -2.0026311925708735
496 -1.7345042389580254 -0.8771529199489362 -1.52765574175684
57 -3.339491635140436 1.4722837254548078 -0.46813432472050187
471 1.3586798913445424 -2.5360863282102066 0.5323111447191482
260 -1.0632203522770949 -0.7391557169974713 -3.4633884001134887
116 -0.1207516048672847 -1.9095845529177886 0.40525227013349296
174 0.0453496291454851 -0.25243081031162906 0.5935305858156221
14 0.06956075894176605 -0.39758717817873934 0.7950440248557153
150 0.6118362061214692 -1.2284345746299548 -2.625844380079163
786 1.6490942519483505 -0.5090901012149445 -0.33529542290501796
161 1.7905203825886928 -0.20995475578933182 1.153080198070088
180 -0.45791973813226705 -0.4226971983985579 -2.8479883860333017
740 -1.9094545297008747 -1.4895138399961154 0.7247285973009009
327 0.9760791707409303 -0.5740282137516577 -0.5768055384559196
524 -0.017893355118473387 2.6621639408502773 0.8416722890842534
558 -0.3336794906462802 -1.2550565262016147 0.6891650346251427
45 -2.4510459045728608 -0.4613593151141315 0.1281670251808312
678 -0.4405696824350461 -0.512332890285839 0.17968824735217848
366 -2.3061801460275366 0.05522588053769099 0.7822298768680529
529 -1.9700112735759066 1.4256277031053872 -2.3900805712235047
445 1.064389239613386 -2.0549282820244046 0.12267894185532871
248 0.9364387334988652 -0.05347582566862582 0.0513673228908305
753 2.190760900037781 -0.20964652156364744 -1.0400668623831202
738 -0.46926837051538917 -2.925429529638844 1.242693848047501
444 1.4569897628996875 -1.8486153319913947 0.7674512838288714
61 -0.6102204010376875 0.1595117019124329 -0.8565242643194887
221 -1.0976238238408957 -2.9561400946158916 1.1562321495471297
660 0.12260192653151403 0.7698983644105294 -0.33720116606480544
378 1.9742297530473896 -0.3521289755037939 1.248608610002747
39 -0.545128687716499 -0.027566894380731996 1.6568186031706877
824 -0.04251341680870285 1.4937666194515817 0.5372406570412993
485 0.6239545015854078 -0.8974986696144208 2.605815548303798
399 -2.919130822519358 0.2721302387005803 -3.3972317680194997
408 0.03994713632888555 3.9412581465812035 1.3815061763133198
859 0.5699637492129512 -0.02441527324183396 -0.2010826750813064
798 0.26838693489499005 2.927808332215895 0.6841886211740966
695 -1.0774078462397456 -0.923768119844466 2.6410045919187217
323 0.560917182148604 0.005894147482164355 0.41022701924514965
484 1.280685722115784 1.07045777394212 -0.4305782342665984
198 1.3479676579241924 0.3628844869588539 0.0028240742114369116
288 -0.5700950623935247 0.29583451074324757 -0.5517124436427465
676 -0.1870208187085822 0.3068378115992163 -0.22494463427449177
583 -1.2316629351343265 -0.7575415270263388 -0.9189299441384551
566 1.1085710268248037 -1.1187569942718356 -0.09574412612953148
454 0.2949871821221592 0.39678497854115197 1.5255643782459827
136 -1.389268419981145 -0.4918071301925195 1.87692074255103
143 2.626423324599414 -0.07729160308356997 -0.14516149442627105
34 -2.509734747685608 -0.8975297796189877 -0.049074301416615985
652 -0.19957039147215602 0.5299279894478103 0.8768314334470577
237 -0.2967577745577641 1.4401199055773928 1.495053962757184
385 0.8624906011236183 0.5298010873263349 -0.28378947657560627
456 -1.12301342142316 0.16639899051116266 1.2324135041010862
745 0.39325911140456316 -2.355232918045851 -0.042566601428672426
207 -1.2072233853676868 -2.671281917148653 -0.17678169408465091
843 -1.7710040508969023 -2.5704621925372284 -0.8463379627456324
493 1.6586663682911136 0.5111703332723141 -1.4549006661024655
729 1.4812953642472853 0.8954861724067351 -2.4998037416161836
137 -0.6241227705883919 1.5400460087410193 -2.9979698594831294
742 -0.1041980789171917 3.2455589903424378 -0.4685490978888988
142 0.5598562392273974 -0.6384201146228082 0.05657348309054446
677 -0.3383496159472807 1.136330921334766 1.3354017925535846
336 0.9814907959532038 1.3506781508279526 -0.04116828821221142
470 -1.4768038356092315 2.540057765848061 0.5403177100342446
724 0.08963387888075755 3.215065583983285 1.8722362540522717
131 -0.3937672027668199 0.8053482582126299 3.032292438233596
505 -0.5779753914161972 1.3205531008170441 -0.03762137438970091
819 -0.8591260148922243 1.8740284132175369 -0.979213891506809
803 -1.9589693908197439 -0.6912687717203021 1.0348321721137554
736 0.3364182555596606 -0.8201528465664946 -0.6386494605077544
362 -0.6049078639792175 -1.1387001500335183 1.1722984916491033
110 -0.26771856696709145 -0.07617641606740969 0.6184895795487529
70 0.878077632327047 0.5503795494697831 -0.45030647902958715
636 1.275147095373404 0.45713813842626555 0.2482065863271206
102 2.3923543552658946 -0.607411162904991 -1.0154568694936719
593 -0.6089126185100692 -1.4954336726310105 0.5454456147374163
299 -0.20676418150087994 -1.2354642315756508 0.4757684434424337
293 -1.4453682338466771 -0.004773252068267656 -0.2830692839331263
149 -1.3530642628487608 0.545343832987434 -0.49182450299449454
727 1.4411240470421594 0.08152481922961599 -0.4401243694584693
62 0.023835198828759174 -0.17703425374539322 0.48645625047540864
416 1.7895370814388276 0.47185266652602087 0.6823360797946652
18 -0.6937569863259958 -1.6237921286308583 1.115835651593548
78 -0.1974401172411787 1.10210123353769 -1.3032176976485692
144 1.0357846977626182 -3.436293168125192 -1.535848353967214
411 0.7869968588183678 0.4944982614555257 0.2702429165611718
616 -1.1583462167144207 1.4887669428832453 -0.11546723832086148
468 1.1122197792078938 0.5269355103479519 2.649717354952443
499 1.2408076000926473 0.774086004285879 1.7800132071817836
412 -0.8855931679927073 -2.101845758974491 -2.9354092732379256
243 -0.6943140364693335 -0.663049981241478 -1.0149692051256267
252 -0.7489815286352645 1.4184267360930976 -1.2116081123205646
549 -0.33618059082904195 -0.13744704999416055 0.20617885804616998
617 -1.0173540172136866 0.4509646542830371 0.516376025972098
215 1.003088725141817 -2.0857880133862956 -0.29111480672178874
582 0.4886399180513308 0.0361151869672145 0.4352768886545425
519 -0.8191993425709417 2.754756809244104 2.1655732113848662
172 -1.7525024893769017 0.10079892473114276 0.5061239062651876
514 0.986096396990489 -0.7430656795809666 1.415631960434759
249 -0.042530811337025055 -0.04596535883274907 -1.242031234934938
534 0.5803921242812452 0.8165868325927051 1.7338400697035994
777 2.18131294426552 -1.5849999928225595 -1.031056959693192
382 0.1329797208626486 0.490324174434555 0.5056925363906583
372 0.9118394705422143 -1.263199216529088 1.6488085958877186
179 -0.060623482279958035 -0.577908838789924 0.015118731859239233
526 -1.2143066751386473 -0.9565706597515943 1.2794934772366393
437 0.4202734561771909 -1.5995781377446934 -1.6415749275829887
733 0.5379114573498842 -0.18424654382390004 1.0531512053217613
424 0.6768661679212346 0.9489517706420436 -0.765238597781647
845 -0.0956566251210989 -0.2282786574886257 0.36193562759678094
160 2.2100472680634415 0.39035520942872776 -0.5443960484340826
391 -0.6703120104135616 0.6641779915974402 1.597461430415249
87 -3.1749312226838566 2.1271317198564494 -1.037205068296424
708 2.0426233976125174 -0.11694571966803526 0.10978295616261624
644 -0.40066762732696387 -1.7331729860921437 0.16962273599177663
357 1.229295786702037 0.9379570178762241 -2.00320208952535
858 -0.331846543336875 0.16987690289740956 -0.7015443110086492
746 1.8553227054452526 1.7279227497978353 0.06437320320194648
712 -0.9623740678726154 0.2077973328521241 0.654421579686178
817 -1.0003835633598004 -1.2448260813749636 -2.4089848861368486
648 0.7459750810562017 0.7756856935878372 -0.27037728382319
101 1.9019856947307645 0.6353773753995917 -1.5867105005039301
203 -1.1097241518691132 0.418129513481685 0.07451705105996675
360 -0.8115071841219921 1.734417051261945 -1.151119959510537
69 -0.7252582756845748 2.0042698592282036 -0.9496083745225703
316 0.5016445497600338 -0.5651496633505577 -0.32426613969526363
74 -1.3229606395569233 -0.8011326049396545 0.47742746656683005
239 1.206536657783499 -1.0248293634482981 -0.025680434717676483
341 -0.41401453614790135 -0.43018422955021673 1.043689843189487
621 0.08519608878213725 1.9167275035577682 -2.6529179681492323
199 0.3331730572213104 2.7469043121433097 0.9704393283042039
737 -0.7015812334118269 2.1614142059811097 -0.06655789281351952
127 0.5102115522907356 1.1491772571307266 -0.8451878029365623
780 0.43156787429625193 0.7052097299166273 1.2979435255813194
367 -0.12595465282311513 -2.4520831276270587 -0.5671281756279495
162 -1.7849974681448824 -1.8591104635502123 -0.5117848443594276
184 -1.533213983636086 0.6635013810132284 -1.4733752402279612
675 -1.3704983730478368 1.0570191365851107 -0.35475184492781364
440 -0.26936803169795764 -0.40470968749909036 0.18631283477018123
104 -0.11909181287234878 0.19039973084717463 0.8232801536058849
743 1.4067814126529006 0.4798214738495443 1.5843175844399906
787 -0.39673325371712 1.1189006873891416 1.2151511632182868
614 0.6031882377114705 -0.5972824627696774 1.585403884850055
66 1.8426852134744038 -1.052511858690564 -0.3497172846609894
347 -1.8945697688205034 1.2076327121220949 -0.025071970764580172
734 -1.1350249225793831 -0.14675423135480864 -1.0253558774208225
266 -1.1253854337750244 0.8047123439003576 0.28137857985403614
722 -0.6138215353946429 -2.021094582016029 -3.3598091552493736
93 -0.30899544507187127 0.5287542706311141 0.05554507557302311
147 -0.6255260719357335 0.019967970594446407 -0.270548547310443
286 0.7820220240100406 0.465036445259554 0.6874777475067391
632 -0.020752292654049487 -0.1492809419978795 0.9265102698651567
432 0.8707384060989659 -1.143250386677211 0.846078217262819
97 1.1607818121523679 0.18187266091660734 -1.4085736153426514
641 1.7656790462908807 -0.17577977915272677 -2.571311335623765
720 1.6999661541702507 -0.8028586243083422 -0.7179307766231028
451 1.0520480415077953 0.22179599961615798 -0.6834978668925709
133 -1.578472621797784 -2.077869549236163 -0.28088684344113923
568 0.5714155793365601 0.611949585596833 1.2338352825010108
476 0.874349889933189 0.3399253656592249 0.1683311528951124
850 -1.1778178832040178 2.3553657021043346 -3.1402885385281794
354 0.33156451799717396 -1.0239990576169151 0.5080532574441837
200 0.9383519471057015 -0.06095596929289356 -1.1174630443568612
253 -1.090982917755493 -1.198602267896916 1.296831365496895
65 -1.4694743665764738 -0.3812026170754582 1.3396291729765377
701 -0.430440920627303 2.1026929239093874 0.4713773731005101
169 0.9654641655669416 1.4446667146292234 -0.017790669379402393
413 0.33339892657542536 -0.23071306073729803 -1.6966282091066758
790 -0.0432017007591275 -0.09640411685044997 -1.6121352424336879
344 -0.7795446033074285 1.2859593435703798 -0.3304400242761984
90 1.876544550786728 0.5186749861599754 -2.914726389400615
507 -2.0073593301960035 0.23878035606686582 -1.756030850506307
709 -0.3899262470268246 -0.14309355187538206 1.8409327810793723
537 -0.8359028297360033 0.6463427306201457 1.1353330554622054
599 1.0558140098706368 -0.30174271658911433 0.064899279682457
384 0.076788183276097 -0.512158951144512 0.362885182464304
26 0.08118202170904476 -2.1532537475338485 2.5903232442871187
220 0.12919901259355662 0.6809097289047215 -1.0032618878564277
395 0.12977023401508866 -1.2916712049421295 0.7663151599337383
862 -3.2560584142351803 0.2057296897540378 -0.8311722552772032
806 -1.0812746416601864 -1.567785264553826 -0.4826917583455211
589 0.3098507982223294 -1.2469402119169997 -1.1438199629140016
492 -0.45503053171598057 0.6087212081416493 0.5372510522260164
228 0.14846018341184852 1.29880685712763 -2.642645319854118
455 -2.6071739947818995 -0.8332928644542893 0.20617711473796635
291 1.821588935581702 -1.4856915975378857 0.32820676990816444
772 -0.47796847693365063 0.2151801861779792 -0.9225723785995602
279 0.8385046854324647 0.1375997298782118 0.13208648000884418
615 -0.4383800725301332 -0.4926652903485097 -1.5509939645123505
478 -0.7159408953699846 0.8977925227004704 -0.6720254420636679
380 2.7771568555556683 0.8521455610240692 -1.7228933214904016
604 0.9500526125398078 -0.12423295181400326 -0.7915866097593312
429 0.6034331709700059 -0.5911824197865662 -1.157075430009398
349 -0.9407474090694249 -0.9352029445469471 1.06142516187176
791 0.909827624886731 1.873956047699546 1.4003673985427256
73 -0.9344359533641882 -3.1661404575398007 -1.3240167860989789
447 -2.6204621132155457 0.09628155345424191 2.443259393485152
458 -1.974842215587922 0.8997433839992802 0.8995453599570254
427 -0.3027795518353798 -2.3891592696849067 0.05631933433276846
187 -2.047403576964501 0.3330609797927777 0.09972672313692658
211 2.2134724209128445 1.2381773726878043 -0.8113082611722009
271 -0.7598037269386143 -2.330487149679173 -0.6595540409355689
520 0.8760070935010275 -1.449451795916854 0.5361552396902621
419 1.7595458453522406 2.744728803503394 -1.5181481951134712
134 -0.33639557739898757 3.26637650721904 3.1426313338235987
71 0.2089629414466968 0.6893931386522659 -1.6574877313675545
50 0.8520624444560967 -0.4855054339178486 1.8804191696267334
769 -0.1415582911971191 -0.2622755974513936 0.6039145031678447
532 -0.6084277068857018 -1.579005135413382 -1.527111705805877
351 -1.0254182359524648 2.9957974719908367 0.8741312203699726
625 -0.03387252046443226 -0.676162411158195 -0.8572947831670558
175 -0.3275194623845658 -0.14648022487601223 1.1508702104641484
270 -0.003544441000052139 1.0066848414553595 -0.4247802307849332
483 0.5541601697853215 -1.4162846975744816 0.06149704924333273
752 2.9083951722271113 -1.3512551747484187 0.1886372979348992
528 -1.2681526591571501 0.365214772824251 -0.2743396925404384
244 0.8680450663757661 0.3649266651739544 0.5363085591509646
388 2.1281050350013935 -0.6592567789138586 -0.5518190196492495
129 0.16374484670769276 0.5400680871984515 0.45558762447603784
668 2.191819029511142 0.6807969712249528 1.2351068305298543
818 0.30073998194336504 1.314003741490614 0.2528164671666438
4 -0.8127659309519064 0.44909720896550337 -0.10315547346712846
402 -0.09987571673302482 2.320179221561998 -0.7758888773637745
205 1.4499104824603182 -0.08958065670517763 1.205331285711526
334 0.8533809250633716 -0.2337841606915203 0.6425990410148088
352 0.6172606704122227 -0.3140203740045219 -1.4079640663222874
846 0.12892820478846684 -0.43556363321642483 0.5264049028907923
634 -2.094634733999514 -1.2281206797969664 1.3677687867221455
580 1.058633142374133 -0.25136830141511396 0.29806300851011397
340 -0.9247414019014324 0.5516179521231295 1.7468143961165137
225 -0.9854519227319445 1.0233593022042118 -0.34329353496383497
597 0.12729364107742644 1.4752553630204985 0.4007396229763642
332 -0.9916074795938161 1.2947302139961816 -1.3454766508120362
125 0.4022369961682348 -0.9131679131688615 2.415152999751882
522 0.05916088596646688 -3.7952388442359726 1.5182170470160177
480 1.5230337210259333 -1.5996411620721407 0.40969607461154456
261 -2.3730257876302776 1.3730629432866315 -1.1907883996850464
833 -0.7235954246370151 -1.6232806071846593 0.05834657492861653
702 2.2322303824094707 -0.43025309026395386 1.3586406225178473
513 1.5734103607267205 3.254039434435159 -0.09002499061221532
308 0.4399797434677757 -1.9971120471883612 0.8389365735190569
834 0.11875984179454996 -0.5517052923358625 -3.4351881750512954
404 0.11914583261287703 -0.3199859534639667 -1.2788496898750725
314 -1.5469214157671434 0.3788887468747305 -1.5599828287160087
245 -1.2873494110305 -0.7672865355706677 -1.4923116706126955
204 1.498307297138504 -1.6651217119509545 2.054615459541109
607 -0.8957811829303682 0.43209246609171775 -0.9606948915004278
775 0.2683733411723633 -3.178874744212356 -0.7936974360175582
41 0.37020854522078356 -0.9265956130090474 1.401667245936546
639 3.086200154848876 0.9148000185762947 -1.2916442233768004
543 0.11352435877978032 2.431004208630978 -0.4052953386254156
487 -1.7457874470606416 1.2362568718274862 -0.5390008512936076
197 0.33906161366757687 -0.5599007275482188 1.280177431293776
839 0.7001691122255562 -1.7186496028799791 0.6413305096664372
229 0.7142886240555535 -0.8336156966697467 0.9511072617227355
32 1.164042935732589 1.5309882120682707 -1.631494444113206
56 -0.2973077784509133 -1.4821140842420666 0.3463615735143713
663 -0.5783723517731492 1.1153374698506437 -1.250068781098075
498 1.6594579666905442 -1.1092845625963426 -2.0530349050319403
364 0.08350280528935365 0.7678351057401175 0.0025217792953749754
9 0.007141791484958745 0.058131499185497135 -0.6934262085567916
265 -1.248569840970457 1.627697493508417 0.7688772582803395
853 -2.141486740855351 -0.8454668517106328 -1.8244197909629536
405 -2.6053683115387485 0.748706302753217 -0.6452584794513783
81 0.9813656330638595 1.4707135636363953 -0.3330169425991253
216 1.3918561268219534 0.7825715908961843 0.3577560779148174
277 -1.4658863710879126 -1.294722527169556 -0.40934613021926775
667 0.05050407183688676 0.6270038949663502 0.3579519680423148
732 -0.8000084119904469 0.5821461213115403 -1.1877840291027746
119 1.343193157328239 1.1084236507883094 -0.3303812329493354
469 -1.3792954375603803 0.7181261468063884 -0.5080370924586035
177 -0.9951214527720098 -0.5846349990148768 -0.08982061631803584
255 -0.4159131279977475 0.4320058847975689 2.8930581805377775
800 0.20178416260920118 -1.6046385221231896 0.7265897975380515
428 -1.2265654391893808 -0.5645406052572638 0.20368321674402942
165 2.146276056432449 1.9183799065670144 1.378191072538101
795 0.3995919682924265 1.3462593867102504 1.4267131456166886
751 1.1383705296770956 -1.0691423836015537 -0.5984764753433309
88 1.4181069888843718 -2.1292344768195672 -1.2587588027279581
92 -2.6669783845817374 0.15606047045602986 -0.40938306451413903
825 -0.45198397915371075 1.1701577587088912 0.524122463042282
433 1.649336766042852 -1.4772350811577906 -0.08012575669151067
31 1.2448659554458987 -2.005935257500452 -1.9622421996041495
774 -0.3677573369549186 -0.03904121538661769 2.1745825355878576
115 -1.2181483602870897 2.530201002488864 0.6330501475368807
410 -0.19691924781039827 -1.7924378706521682 0.2518271974210312
226 -1.4026083270645409 -2.1273323472909653 -0.22227598767038217
464 -1.008532239463712 -1.3104204942598143 0.4058301970730046
107 2.495262959671598 -0.5121874946634601 1.380087775206062
287 -0.11282155430171424 2.6866079951979858 -1.6497193320969537
797 -0.1708736660202404 -0.37688167472512785 -0.10307140358812855
682 -1.4915642439898027 -0.6201299140116959 1.7573981499210927
434 -0.8656122296872396 -0.7705488554565404 -1.234961155244266
64 2.053024350967236 -0.9218239037090676 -1.5966407663153328
80 -0.016879177242544886 0.6508414814980691 -0.5838816478478842
345 0.24671979212636505 -0.5041270293592359 1.1570896168103981
190 0.40218018788062165 -0.3097506969609352 -1.1880599717967621
426 1.5161543148870091 0.3119591162011172 -1.5312899157877338
831 1.9650208908741362 1.275153522280422 0.678040752539017
541 0.052032257410015714 -0.2613246623414213 1.1190599563572745
27 -2.153031662200651 1.6846175326707733 -0.41772577371093944
630 0.8835444200018518 -0.7663006165313379 0.3135173663178739
123 -0.8294890460662815 -0.025617290647806934 -1.082104830266759
448 0.7322652748175229 -0.6282619368160837 -0.6209332270913919
586 -0.9804164686400849 2.757222734308041 1.4314132936887842
167 1.5228661197042122 0.12241746713448931 -0.39036454700221584
222 -0.31552308557695163 -0.17923627621255794 1.333342762114199
491 -1.1087347946343453 -0.2622300677467477 1.6890901741011977
168 -1.3158890460661423 -1.0897449117877942 2.024402029072237
467 0.16583994711656608 0.8808357968109654 0.8301198055736609
304 -0.42906938124202454 2.533200613947015 0.33744854184485684
450 -0.7548889683769627 -1.2580402195099674 -1.4271796384329676
361 -0.5242346873879468 -0.7297236119237417 0.026402614624497677
821 0.38531457247261713 -1.34869080327692 -0.5270375337535461
72 1.5545231250760798 0.10006133708579469 -1.832774570464527
562 0.5649715267033071 -1.2861635282172124 -1.552010239676599
383 -1.2102025595056105 -0.9614567804253761 -1.2081159759814069
592 0.8220426254986214 -0.39521906131227624 -0.9142723329143666
126 -1.0651652519170656 0.5220103279157541 -3.056013574767716
212 -0.6045920992714908 0.5514666547642507 -0.841749822780289
217 0.9727194558531372 -0.9581982185403055 0.04243373477815485
236 0.05411370143340176 0.48257213088475054 0.833785651700414
827 -0.268203365427527 1.3824710822606925 -1.870515535325241
830 -1.7411036172953687 -0.6078980201131954 -0.3979829728364994
333 -1.2681562497570105 1.341545176846732 0.8634523071728765
768 0.5169269908024413 -0.585674415131554 -2.0189677177567282
674 0.47272969219688066 0.9999608132788649 0.9149973540980952
346 -2.3620063702401697 -0.4409113051286735 1.5386526192752594
792 0.6677900927402397 0.9883091783869249 -2.160247454182502
820 0.6652646394669464 0.8221716758876237 1.4140371412482762
518 1.7845138021975506 -1.1936424091441151 0.8522465003792244
750 -1.7435765521381277 1.3771606566712677 0.01484779762361504
714 1.893807679165473 -2.086957495324601 -2.028516084301147
489 -2.6503567048504904 1.0915821772254015 1.7371716681961804
680 -0.7196819644836864 -1.0352466335566506 -0.8421830004657528
305 2.5171964225830483 -0.12033697381061334 -0.6909019180450168
317 -0.7485063684743851 0.03285506985716972 -0.044176020175646806
418 0.08937869145672904 -0.09519880617408367 -0.03419629677203195
251 -3.045080576725178 2.8624318731203107 0.31718358715934225
113 1.8638924453265289 3.6753317868378432 1.0125219841834727
19 -0.05555118696737867 0.8221439701103005 -0.2355742100172746
545 0.22467076209257678 1.9976583788541042 -1.5851692951599476
670 -2.5783782416354315 -0.6672495199530025 0.2915875053712524
82 -1.1244865735048621 1.9829344286735353 1.4667139374716849
281 -0.10021509842400825 -0.6385888687780542 2.6644095913728125
164 2.1256961578252462 1.2529974080387407 -0.8247375780027847
666 -0.21902569542665065 -0.1171722798762879 1.6144961472317982
151 1.4359687966211714 0.3813458386942502 -0.3103793174512237
461 -0.9977650555011417 0.5062223320403836 0.07302214570249863
250 -0.9455965076914125 -0.025086648132162857 -1.4146678931368333
766 -0.36810134169143277 2.1769252672207937 -0.018287902186302316
240 1.8231923414279818 -1.7719564052969012 0.42941065629420055
309 0.004078805593968619 -0.2474673591180633 0.6376807272418789
188 -1.514141397050674 0.42888976496603015 0.7090776861202132
390 0.7048591898703946 -0.11693908915074096 0.18790527119282757
25 -0.6563457915721871 -1.5050130331228602 -2.302820325839031
241 -0.05548569485710587 -0.07745129459656251 0.30440010904349285
813 0.3653460588980467 1.5537198391446445 -0.5594275241308
603 -0.955810681186392 0.2896954998995806 -0.08309577047359888
581 0.6941637940848459 0.8504191545508922 0.8844216287658377
793 -2.0467942822518945 -0.8327568688762056 -2.7528888867116383
145 4.0128026275748345 -0.3210792453182109 0.4305858093900219
815 0.37746213315613264 1.1623016649836602 0.7226229522081354
328 -1.2227125856697452 -0.6563768699617216 0.7542662253455855
849 2.4418373512547924 -1.0543326199807965 0.8082051265300301
94 0.8648831159758835 0.6258416660972654 0.7699373891306902
860 1.349534780456544 0.3906316106800926 -1.0471067355203183
466 0.2194427866445044 -0.5208877346423896 1.415327963327042
637 -0.39186555979471904 -0.17661702142416172 0.6622590347521486
495 -0.5334858375542648 -1.431572834888585 1.8753394991713936
633 0.2629999342272287 -0.952036925848794 1.4744485110117558
649 1.7164422189218644 -3.231514953202413 0.1834122787749698
723 -1.1336534209857723 0.335077710700625 -0.4324856837371644
503 -2.532791171436603 2.16739739097101 0.8688998191641187
96 -1.0592827633458903 1.6213175408591036 1.0823011891176177
233 1.1655337045511704 -0.8896658998416376 -0.7475141903293144
857 1.4313850160598112 0.26704845929890275 0.16569927728276068
389 -3.1080318545974284 1.2130028810396263 0.08320628847523615
130 -0.8429163733904561 -1.1169763205956453 -1.3358345958649767
329 1.2199037432765245 -1.2218646362962822 -0.7758209746462215
312 -1.0841738957048574 0.13895273411071649 -0.4084284195392837
435 0.8376792946072461 -0.5914936781696896 1.5445961372372559
473 0.594936698361557 0.6091999198785384 -1.6256946425057741
242 -0.8874495199261072 0.045362307096498466 1.0414871894523423
462 -0.3816887058372693 -1.8150220301991769 -1.3506609774590181
756 0.2559033547313362 -0.6678667691206901 1.143911814624936
396 0.23564625434335437 -0.33405730815231344 -2.354574953967001
139 1.4397048244305737 0.41624833185472754 2.535312411445638
89 1.2066865884463345 -0.10912675926321003 0.29484240135154516
707 -1.2969424976651391 -1.000524370333518 0.26219741842036354
338 1.7781428104025458 -1.2152319313426538 1.9042451810278698
628 0.11579415085760526 -1.326115291674404 2.648913789502025
48 0.5410980629244931 -1.7232637771166486 -2.6501244874868664
263 0.30881595882448626 2.7192478466189893 2.8818721832946483
321 0.030658872820114497 -0.8243016749166044 1.0516148853408893
406 -0.13787368623324892 2.3830437078381848 0.5891236744787879
765 -0.6811357981813416 -1.3428212407184072 0.5122479201611905
601 -0.7887229011983787 -0.052071037552760976 -1.2956328577192013
398 2.1624546274588887 -2.257002094017296 0.9869814011799156
801 1.1557064282818856 2.322553699284485 2.6925372510280186
457 1.3713084863646336 1.0055818095266738 -0.5418701203808006
272 1.2797213909896128 0.4296194055076254 1.971692447886239
569 0.4159982700093287 -0.7774667863281479 -2.3049132382865998
348 2.415572073646079 2.2974746522388756 -0.8777376935361417
844 -0.1673344886566252 0.2433408732100766 -0.47053694986969524
540 0.36352090624577815 0.2722062530262929 0.6534428112230519
189 0.5240935150650022 0.8262321156113486 -0.2571534371585222
192 -0.14417374005118794 -1.0805148433343201 0.7330083686454618
554 -1.5380350049917126 0.5170366318250591 -1.2874102147965694
855 0.991080936776255 -0.8523128391515111 0.7929556477581816
861 0.6578748264570548 0.9165667579100966 -0.22684799574782427
163 0.40325019505333665 0.8923314482718455 1.6386314724339155
122 0.23675870743805646 1.0771291819091855 -1.0684988317399216
605 0.009787251780369616 0.33883669535691546 -1.207447239024314
694 -0.16720608936540554 -0.18850245339146113 0.5228963013647909
238 -3.1747355798203905 1.1578437447090582 -2.267932601474769
289 -0.7030068243610117 -0.547330095625699 -0.906766460987773
783 0.7318568242542314 -1.6444566097153357 -0.7787693845321282
835 -0.3710281231251431 -1.496408257630926 0.6119982798039797
697 0.8293000120757206 0.5748314107406437 -0.9894385631630414
76 -0.3738752457699312 1.1029482949486231 0.9699697791042796
474 -1.7817816164417841 -1.2446903997319838 -1.228528976257183
506 -2.1175611983713867 1.1214226911995686 1.51942934978361
63 -0.03620544775415561 3.0158165013695095 0.6441195654082851
282 0.11327971967556624 -2.3758275315666735 0.094523797553918
618 -1.2133645873779275 1.2893984639757474 0.2402834425357951
318 -1.693500327686789 -2.5195065431581587 0.7697591590580187
538 1.8044383021856107 -2.2719651627228137 4.360587404707089
662 -1.866084119785275 1.0899616212360241 -0.1291849023355736
826 -0.7982756063439976 0.1373577282387051 0.9067948751607436
785 -0.6774596221492176 0.4374195513998736 0.6024335801017571
665 1.2764246594969904 -0.9710393604217575 1.311280417064353
377 0.7090491095924882 0.23517887568068352 1.8257215336396324
567 -0.39331392972434054 -1.3937182761923523 1.4390317088850848
781 1.8205358766423547 0.8727305752012026 0.34799467820217145
828 0.06092265963274346 -0.6004687755966113 0.239900952117176
313 0.8433652234974732 1.1066005647852384 -0.37467864212997565
481 -0.2686823462144413 -3.184942998208561 2.2580959593706504
643 -1.1991961701637721 0.5506930561594963 3.747452965414915
95 -0.8506522329776168 -1.6729184320776935 -0.44623935879806953
807 2.0113158363785124 0.3803757417774727 -0.8460848349024142
234 0.6175963414725063 0.3230950125105024 1.7986951933054163
186 1.4397641946391444 1.547128913144094 0.9353154498119809
269 0.01018553123687647 -1.2722591576981788 1.0971849450114206
335 -2.3592246046801977 0.20385518486190204 -0.7786970305419841
268 0.6677578557682142 -1.208708420537228 -0.2287372630240662
574 0.5670571862014644 -0.5683749102431882 -0.26940044369961064
355 0.3194139659520231 -0.3690266381400922 0.14645853931764155
29 0.07416024397156043 0.35813964511633806 0.9565445928073856
530 -1.3130943001703723 3.2730274727678457 -0.04840936256419168
710 -0.12191143755950526 0.28686127148379886 -0.13051061698916924
764 0.10397540847104769 -1.3604240598854622 -0.5842461546347745
609 -2.5594417728833845 -0.27643172252501824 0.4773756338219862
779 0.23904328798227617 0.18323794738190238 0.6926059090014153
748 0.10793269586277897 -1.180143941269154 -0.19185757311488388
515 1.3105601713310273 1.3907597397413582 -0.1229711112939037
542 0.5997820010243671 -0.780477832321996 0.3750169222351447
719 -0.45518504668863835 -1.479770255746484 1.796392642772683
415 -0.30121614407434677 -0.16586868609327676 -0.6713453548057944
693 0.11797708039677392 1.2532789432173919 0.2691160961813215
730 -0.9029937296740289 0.14197005456973638 -0.635643591880626
482 -1.8240305325601374 1.5543602689725342 -0.4308017359329465
264 1.2961220698302647 0.6983900633799488 -0.373606728555136
114 -1.1380811471944439 -0.7546338325566627 -0.7223560782353079
208 -0.30111058577900135 -0.03178431864376214 -0.0969752408188545
407 0.914177875275733 -0.05798396365112588 -0.3084045593917514
218 0.8093336824558464 0.3469349137336714 1.5947740566570598
292 -1.3709586826643052 -0.8008936927549073 1.4605084737221183
91 -0.18312197074128003 0.09673869093106298 0.48465454382397377
342 -1.5005189533301873 1.717004043341304 2.2319167789791656
53 -1.4870812633786146 0.923324409278962 0.919778390463674
536 1.448402686499214 -0.47502555780428785 0.25481227123676214
661 3.472808433398628 -1.107335213953583 0.5785856263694168
613 0.8618927549720052 0.9974528246452904 -0.3296369928129391
716 -3.5647290385376875 1.5002142002519865 -0.9899828704799863
560 1.199526825120922 0.829741565446441 0.28009613162606933
822 2.5396375118554473 -1.4992955994299473 -0.766868292313754
140 -0.8248972197652665 -0.9055498847181588 0.04845712547081538
392 -0.36741314218756266 -1.531838711844034 -1.324452638962729
739 0.47255184048830107 -2.0409504119567137 -0.3011475122585349
591 -0.9179048165767107 0.060844989182518364 -0.577328246926745
206 1.2938345845333161 0.7923564587644168 -0.9018142580957598
842 -0.25270257663039875 0.458638371249942 1.7175442690890745
638 -0.000575920238817977 -0.3420307940780477 0.6068326636562318
373 -1.2144758802180513 -1.280666494087204 0.6129132428744767
381 0.9198849573027944 0.8577323115571217 -0.6225572865051141
3 -0.4189026192340398 -0.5094202128685646 0.23804237143456747
224 0.6287142832155838 -0.346518735428559 0.9965090279651593
30 0.3530971821603135 -1.600151901208314 -1.5429763458101844
438 -0.4743701277087639 -0.5078780969278058 -1.0362787186051272
315 -1.636495092144324 -1.8867392049119907 -1.0327713814904302
146 -0.2187072860552702 1.544653485563318 2.667985100670118
531 -1.1341845308159584 0.9340899181474611 -0.8317193427873921
120 -0.811056052003778 -1.8568030183855135 0.03383033496893342
420 -1.9518833976405465 -0.644832914438441 0.2418574463459672
423 0.4426355871982338 -0.28537468834542745 -1.0053789334678667
185 1.8731479251479448 -0.5549029451000927 -0.024472559977125767
247 -0.5279362925038659 -0.7447896997364924 2.49708288505375
573 -0.13069580838809433 0.9016926335268973 -0.04498349099254499
223 0.9333315614677538 -0.0024328062264878923 0.9131311113213256
42 -0.3332745542617357 -1.4356770058616566 0.6002945883438282
673 -0.09875245158799373 -1.1866621350146274 0.05897051247644187
686 -1.1081177573730363 -2.5907917027192333 -0.9316422101415078
436 -1.4797876742658256 0.7784125999453206 -1.5750708702791882
35 1.752385267086421 1.4164075665322204 -0.1628499980298994
259 -0.24045003483263613 -0.2675087024641853 -2.5478247767763236
52 -2.6167121511778166 0.0981040306909302 0.03481759986126901
704 2.3236387601186195 1.6360062078257507 0.18239451834440032
655 0.8677433143985862 -0.39195957007463905 0.29997347425420545
808 -1.2084182051727976 -1.9237952884943688 0.5099786695306278
453 -0.48645761838959695 -0.8522731019933942 0.9512149018728044
475 -2.6809043336525136 -0.3014400879869849 -1.9016797583273823
829 0.08857965489004788 0.9311335318385207 1.9988714016284401
2 1.438482422590031 -0.4005605605900502 1.1458784844991527
840 -0.39153313861026084 -0.5179038360854068 0.023677861511302942
516 0.35790724714034056 0.048734246131724154 2.2782434107859904
273 0.8832489202920741 2.4824072628009244 -0.28628143428530617
689 -0.13083548787586846 1.8301231740981 -0.7058780447464924
202 -1.1883501256787388 -1.068160125185372 -0.3948463332342209
851 1.7059424300726744 -2.8792579983051962 0.8004508697932389
812 2.427473894953771 -1.0221919593529998 -2.2514646124213895
117 -1.2509311871058089 0.8950613762293722 0.20099392361790924
118 1.5794625069280557 -1.2238387595133566 -0.9084218791417185
278 1.2850704819810304 -1.1479450885937783 1.093758805555452
17 -1.0360620563456457 -0.8929014260294935 1.034835026824839
588 -0.3139879469785416 3.0080534260887624 -0.627817812504997
767 0.9361375617036565 -1.5884086928365249 -1.5027418800043961
284 -0.23212384063027366 -0.07513562300621252 -0.18045012640638278
275 -2.6248058355061628 -1.1883771890798058 0.2702868028214857
274 -1.4264992817175932 1.3198976051840425 0.9115740035974724
564 -1.4967703736509763 0.309607139212818 1.0573790646165202
359 -0.6373196262455239 -2.008462197092357 -1.5889092666856655
59 -0.4816623771517079 -0.14089623482341304 -2.673857217432939
856 1.8689384293223594 -0.45189369115836003 -1.0398635963204357
68 -1.890069878922737 0.04640107397113866 -0.2296701039446282
339 1.380252232259864 -0.802223412997162 1.176161569555728
838 -1.856989280424679 -0.0802418525087207 1.419479052363464
103 -1.9076307321498374 0.2104596330932429 0.5160391317443168
421 3.0113063593841707 -0.7945444413419029 0.36724981466429435
40 -0.4318036501604388 -1.7366342287487908 2.792650488681665
319 1.652618493234806 -0.8664158965070549 0.5599505762224124
784 -2.149514488536024 0.15839016765839561 0.19173184555172834
47 -0.9565459830667187 -1.2625501833882198 -0.28421934427346934
512 1.115223915026157 -0.9353818963610916 -1.1114024444128985
121 -0.6234960847219935 0.1351512501499874 -0.11370153583633877
585 0.45476056458878905 -1.195647567229025 -0.48907101340203274
810 -2.830893416286261 0.056283600380210116 -0.05586116759282981
494 1.4115330457745348 1.414683090987981 2.406088181674516
431 3.1297767619019856 0.4971034218544095 1.0958601706289095
124 0.03178669873246503 0.6599202123792357 -0.8572130011598438
111 -0.8062496736942453 -2.789539391685732 0.5456199350437266
577 -2.4231800028332002 -0.3275131706956498 -0.1873728067156487
325 0.1956048952221335 0.49714703978835045 0.03589257619212057
368 -0.3959472447968864 -0.4931118188705898 -0.8953035614054651
735 -0.18525366069783297 1.1043004254819124 -0.5563031503643304
300 -1.9742967173408288 1.5371638606776368 -0.7153613903905326
46 -0.8251834842731924 0.38439817914914515 -1.4300864796941333
760 1.5911562975717914 -0.5041570774191164 1.9518835123376415
98 -0.6267987410677707 0.6568372714647555 -0.17337311092557547
804 1.8270673775469557 0.4511627740665897 1.717626977568965
