LAMMPS data file via write_data, version 2 Aug 2023, timestep = 1000000, units = lj

864 atoms
1 atom types

0 10.073999999999998 xlo xhi
0 10.073999999999998 ylo yhi
0 10.073999999999998 zlo zhi

Masses

1 1

Pair Coeffs # lj/cut

1 1 1

Atoms # atomic

151 1 0.5455418517954996 1.2289820283166186 1.6204111348314922 -1 1 1
256 1 1.4228132678171284 1.3474215631670567 0.540599512244762 -1 0 1
566 1 1.2632644020982549 2.3614645858665186 2.477268069276799 2 0 3
649 1 3.7805098938351973 0.7445832142929546 2.1065170480442204 5 0 -2
733 1 1.6634772884434805 0.8967429339136431 1.602601763265347 3 -3 1
660 1 2.7507280459710586 0.8082345761566738 1.773698371774181 3 -3 3
412 1 3.6113101705177666 4.703236498343266 3.1142173995262117 6 -1 2
270 1 3.6081109030834626 1.0300055637809997 0.7888618667334036 0 -1 6
443 1 4.583353923031426 0.14653277779691953 1.3718720347361928 -2 -3 5
521 1 1.5339681428369423 0.396119146369117 2.385156373306424 -2 -7 5
537 1 0.5806003444685826 2.8285000032384087 0.765703146211336 -4 -6 -2
100 1 1.6384112410155838 2.3131291109603977 0.5320842198597164 0 0 2
352 1 0.47852312340397135 3.672419011041307 1.8018945845123893 -3 -6 3
728 1 3.4005374479172588 1.686648487483023 1.4170568021746888 -3 2 1
387 1 2.4114824534229324 1.4895481648099298 0.8175200671906109 4 0 1
171 1 1.442049213125239 3.0957467642649923 1.3603737877931295 -3 -2 -3
394 1 3.484117398344936 3.0281576418808607 0.07090387768439854 -2 4 6
724 1 2.328748807385113 2.391704385640644 1.7121364346855124 2 0 6
558 1 4.096324105688528 2.2569291322296605 0.5726275336883627 -3 -5 3
696 1 3.5635378112344087 2.8706801134851574 1.4241264214101708 -3 3 5
88 1 4.698319796305035 3.3407166282522662 1.0584923080026125 2 0 -3
192 1 4.345426378077206 2.1184992102041282 1.522607137437541 -3 -5 3
859 1 0.7895345225471383 4.331692550241792 0.5492963760920495 5 1 1
627 1 1.1100188529316959 4.441153312497808 1.6225102703366565 -2 1 1
761 1 0.1502524201584688 4.131541083489525 3.4453587679960274 0 0 4
610 1 4.44344182672595 3.024584870481308 4.316130362225715 1 1 -1
489 1 2.4008617254187055 5.032691970019319 3.5437175582188005 -4 2 0
240 1 2.405084958832424 3.172796130858876 0.8382171252838909 1 -1 -1
15 1 2.8001320333415194 3.805155264160057 1.5337240258499896 1 1 -3
66 1 1.8454190289391408 3.9568538595189944 0.613094117367828 -3 1 -3
25 1 2.0961446117352196 0.3757468315138082 0.7234371846879295 0 4 -2
131 1 3.7915407626900732 3.910823446641777 1.3274000745096979 3 4 4
175 1 4.034795890663877 4.8648999974335965 0.844511473953741 -3 6 1
242 1 3.840620644876365 3.9900883673397196 4.673769221613662 -5 -1 -4
73 1 1.3883615063131078 1.3096606638686352 2.4897381406222094 5 3 -4
129 1 0.3356256131164082 1.74139962133038 2.5313934818305825 -1 1 2
108 1 0.3930099258683695 2.6084204684068504 1.687393895690254 1 2 4
595 1 2.410136342828415 0.4575600324053861 2.803870444006929 0 -3 -2
445 1 1.5657491446648482 1.5276960094639835 4.002282134979263 6 -6 -2
863 1 1.3948188990052497 1.9035971442971007 1.583691637857075 0 1 0
842 1 2.5241161789326467 1.4118119400385107 3.060240315375857 -2 -3 -3
545 1 0.1661212246775462 1.2057611810932267 3.5346509376419792 2 -1 -4
547 1 4.474801957879065 1.1775292683463374 1.307399256002546 -1 -1 -2
269 1 3.399423006884345 0.8076732029105962 3.160651574348512 6 0 -5
68 1 4.581334915400057 0.8560445212503498 2.9692014412306666 -6 -1 -2
615 1 4.567922403278286 4.95617169075254 2.9620011796727983 2 -6 5
786 1 0.18056695716402427 2.5365115446954998 3.1332894285864894 3 1 0
29 1 0.6743242160273104 3.3355918559990463 2.81306266649279 3 -2 4
635 1 4.744012969801387 2.885671163419409 3.367867137339425 -1 0 2
84 1 4.1758054990623705 0.17860975432910225 0.46785538654440695 0 0 2
336 1 1.8162225445518123 3.2642991513032227 2.8538277937503005 -2 -6 1
363 1 3.1803895166492375 2.323310036698845 2.2200935026699904 -3 4 0
797 1 1.825083053317255 2.219323425111195 3.2464673703514544 6 -4 1
503 1 0.47924380725039445 0.3547406878442517 2.2208171530174465 -1 7 0
784 1 4.251759409982996 1.641118100498116 2.457401003467427 -1 3 0
273 1 4.147778498147527 3.2535118136715213 2.154016542713532 1 -1 1
55 1 2.9983549970216385 4.822914123568443 1.0212806052926704 1 -1 0
796 1 0.7270843785497126 4.399553689369067 2.6372102687170114 1 3 2
502 1 1.8515486896948248 4.043624444626709 2.2735640848282443 3 3 3
143 1 1.421033815700147 4.657451282367062 3.395442863563282 2 -1 -3
306 1 0.2761954852981674 0.7144059484599755 0.19196707759146112 4 -1 -1
162 1 3.6742645652310704 3.0618683149960386 5.009319832185479 3 -6 0
828 1 3.2616880195859173 3.429768611134099 2.550821710968791 -3 1 -1
785 1 1.116810123497903 3.7126928439142746 3.5597859708489947 -4 0 1
177 1 3.083816395606227 4.610627536393344 2.152410264682262 -2 0 1
690 1 3.1541013309356476 0.1940277345356268 0.20926748813058646 -3 2 4
421 1 2.5467862073906824 4.237276534703747 3.0175532548744703 0 -2 -4
715 1 1.0234548832377206 0.3830443409880939 0.7916160720907349 -5 3 2
814 1 3.8245932585540188 3.497346804035571 3.6239106143590876 -1 4 1
182 1 4.900877091276599 4.371309854625149 1.3515760307854907 2 1 0
147 1 3.9895501335073735 4.249137152235241 2.235900618008247 1 2 -2
838 1 4.743288680359714 4.011473873208508 3.3642858211233615 0 2 0
659 1 2.8945397010016887 0.13268597134914084 3.674099197696282 4 5 1
241 1 0.7116092582731868 0.5375975166258921 4.153089150663092 1 1 -2
647 1 1.8496102154723402 3.422434969232869 4.1349574922846 5 0 3
580 1 2.234836289200284 4.681929098067203 1.5507644351806948 -2 0 -5
465 1 2.68852464440807 0.0074592306499245056 4.674283748903291 2 5 -3
806 1 0.07368062812427677 1.783251170163141 0.9935458471805589 2 3 1
389 1 2.1347245166396434 1.7587286663249224 4.9395144073435135 0 -1 -1
648 1 2.0031853793729297 0.45333595279289723 4.080668841951054 -3 6 2
590 1 2.9132299864807263 1.081156728794665 4.262851846160766 -1 1 -2
455 1 4.962890403073443 0.7874619582763304 0.06436527460218662 -4 6 -6
370 1 3.6937289289859274 0.4534612285033167 4.62632112134052 -3 2 -3
83 1 4.26529050329241 4.643003802701265 4.007808155975385 1 -4 -1
186 1 4.666879439527101 0.5577421560544333 4.131178436767192 2 0 -3
759 1 4.472407058679022 1.9264207492130148 3.7866116138213464 0 0 -1
267 1 3.415995442482491 0.04591623496316596 1.3457076400559964 2 1 1
405 1 0.42059604106839843 1.984352275784363 4.102584877533205 0 0 -1
494 1 1.330444737073121 2.5886545252289253 4.758649711370227 2 4 -3
424 1 4.9852978083489345 3.8316424606499253 2.2591219331855594 -3 0 0
148 1 1.0757347499057652 2.7480276936027153 3.8206764361072536 -1 1 0
509 1 3.6739977777715747 2.2948734055176327 4.190020639756914 3 -3 2
810 1 2.5507563782417426 2.4425239243668826 4.266667617531185 0 5 -2
429 1 2.6828789165995413 3.4092511437276265 3.6183382779363655 -2 -2 2
62 1 3.0875551966049652 2.584460035548524 3.3255052296038117 2 3 -3
49 1 2.665183362745014 3.3850097806423993 4.682865787230382 0 2 -1
669 1 4.241393670477032 1.3126667264978655 4.684137202380741 2 -1 2
589 1 0.35298827764681007 4.727550934418024 4.366430145371398 -2 -2 0
94 1 1.485723034215037 4.417948698000937 4.3712405888122445 1 -1 3
820 1 4.885217686323323 3.8967965513585106 4.547311783015819 2 -3 0
141 1 0.6893672477367749 3.6004501633842723 4.580408113613501 1 -1 2
307 1 3.0714022419347824 4.227414816032416 4.06068345517852 2 0 2
7 1 2.9449324064189897 4.539070471448957 4.962308331255584 -2 5 -2
577 1 5.0301981397657 0.1389055075210743 2.372777266717712 -5 9 3
721 1 4.111646648669133 4.037313467567027 0.019798628784855055 -1 1 1
122 1 1.1737456529976966 1.1067173821335174 6.0672806760896405 4 -1 3
91 1 4.3702270468117135 4.560340450649362 9.083916601036254 0 -4 0
460 1 0.34023168875134674 1.544852475824638 6.026422965396718 4 1 -1
694 1 0.7470951247116651 0.07584767808187741 5.104412411850082 0 0 0
788 1 4.740040502645531 1.6955685837476968 8.926855098188712 -4 2 -2
57 1 2.295654910504889 1.0089586959152215 5.800805424577354 3 -1 2
767 1 3.150459798392424 0.3706740432184493 5.678537696287238 5 -5 -2
89 1 4.211638250038083 0.8103213108667012 5.644369620644125 5 -2 0
688 1 3.329797689833231 1.2557502724884528 6.19648935043932 0 8 1
591 1 4.937789137577262 2.2376959428269707 9.854936421680197 -3 3 -3
819 1 1.4655602938604269 2.051793979871222 5.6876242586426216 -4 -2 9
585 1 3.1817968323058263 4.999328665036381 8.942618933816371 4 0 3
709 1 0.6347910118103671 3.140551558503228 5.582275076313201 4 4 -3
771 1 0.5682236569229808 2.1615631390558425 5.24676038600619 4 -4 -2
686 1 1.880061784820483 2.690542693332263 6.455941509570277 1 3 -1
448 1 2.5989894256271637 1.9519531481403454 5.9567122957399565 -1 -3 2
236 1 0.2599940940311717 1.6177277592403048 9.76000971541011 1 -2 0
446 1 2.0290200143173998 2.80089153455052 5.414652097624505 -1 0 4
317 1 2.8901073331476503 3.082375616635311 6.222935726591246 -4 0 0
483 1 3.4359508769828646 2.4390158596118696 5.777520098754972 3 1 0
149 1 4.8224734548989305 2.554958900014843 6.20345388651153 -4 3 -1
253 1 4.123885630990873 3.65014853410012 6.525937572793446 3 7 1
359 1 1.29910814001656 3.935957904095672 6.360153602548862 3 -2 4
561 1 0.07720430475460127 3.929022200644712 6.3374891827660615 3 -2 4
467 1 3.4020349495349227 1.6042110850859963 5.08659056854242 0 3 0
490 1 2.8339935286492213 2.751625328585716 8.8186875950367 1 2 0
375 1 0.025758228515587952 3.5738027269000905 9.570579221771881 2 -1 4
358 1 2.387765521332142 4.002786747016093 5.797863345897903 -3 4 0
582 1 1.012466891261061 1.2228642735914486 5.113396519647433 3 -6 -1
830 1 1.6495886823386425 3.7164479764325606 5.098909441864021 1 -2 -2
64 1 3.5192255151643823 4.327983819026241 5.872284072523792 1 3 -1
557 1 4.966711909504604 3.064924959881393 7.098579430011527 -1 -3 0
218 1 4.450325432092254 3.65026679928005 5.43237463117579 1 1 3
157 1 0.7516260124807899 2.059360823953531 7.011887843062273 -2 -6 -5
488 1 0.8584461683760662 0.8825024329768572 8.507700202209495 -4 -4 -5
338 1 4.9159783909136605 0.5938998535075392 9.203281321775172 0 -2 -4
385 1 0.5062076942838355 0.8114693518866908 7.264414190228302 5 -1 -3
168 1 2.906507917816234 0.9804497391536947 7.155024343170421 -2 -5 4
164 1 1.4720369071002246 0.43422077420344596 6.713479982743791 5 1 -3
705 1 1.5036608936257125 1.374722713539358 7.571036107485157 -3 2 2
476 1 1.850930329475931 0.5243932427908983 7.949879984194949 5 1 -3
670 1 4.544084272883088 1.4868118391006349 6.5256766493392115 -2 -3 0
432 1 3.6222781333181446 0.32965981430558816 6.721822083867057 -3 -2 1
402 1 4.7064493470835655 1.6849487041581874 7.664853911377007 7 -1 -2
800 1 2.665174470685366 1.1680375819777742 8.144597570954106 -1 -7 -3
736 1 3.7355027716758804 0.854833847132666 7.835615808521254 -1 -3 0
279 1 1.4767876339723498 2.3047469323275123 7.817367037516213 -1 5 1
599 1 0.1907750636752101 1.827385354744463 7.737903868607865 0 -2 -2
80 1 2.400031704929268 3.0547473035996835 7.258572007429418 0 -4 -2
243 1 0.9509076383264695 3.03916227504218 6.91200912359924 -3 3 -2
360 1 1.8997602139043235 1.4368590849576548 6.650794980764351 0 2 3
276 1 3.7470882664980105 1.8701000485939037 7.302049229819222 1 -3 1
592 1 2.7557354872714748 2.120531325732596 7.0091798856991865 -1 -2 0
772 1 3.1508904859787714 3.7167471222006365 6.989526377430433 0 -4 -7
479 1 3.9446934721087956 2.6824128232415214 6.590227686741689 0 -1 1
369 1 4.359515228427348 2.48133162319503 8.237152366160442 -3 0 3
792 1 4.129578277196212 3.415651226113654 7.705894362704645 2 0 6
351 1 0.4040344443579267 4.457592695923195 8.168657836103831 3 2 -1
383 1 1.515610830440165 3.5282759854122827 8.326479610828718 -2 1 4
79 1 0.9205333113797436 3.811184527957007 7.486125369806451 -2 -5 -2
75 1 1.0591536471096625 4.684236225712378 7.063376490908839 -3 -2 -3
808 1 3.3657023260886194 4.369725782558661 7.9323617599396945 -1 -2 -7
720 1 2.8673267486782863 3.4356252066917485 8.130808555218715 1 -1 1
552 1 3.0726918036701534 4.6635851771983505 6.789694189628576 0 2 2
315 1 1.9963993785549257 4.151911621131761 7.11099729422593 -1 3 -2
127 1 4.0902665345054405 4.383701789689723 7.128159832516166 3 5 0
471 1 0.26167259085665734 2.5002614120330926 6.310633809605219 2 -4 -2
533 1 2.9516060365798866 0.1559181239252118 8.1229400246526 1 2 -1
454 1 4.223753737206724 2.246900781818155 5.169082485263075 3 0 -7
752 1 4.644465390062191 3.6186755576111014 8.509977487256537 -1 3 -1
824 1 1.9082851759785997 0.569739568515366 5.076896323934333 2 0 2
126 1 1.7512874523305697 0.06517117077638201 9.030664988902608 5 -1 -3
313 1 0.14853719605585602 0.19352533420985493 9.491457374900808 -5 -5 3
449 1 1.2547445628632197 0.8000508066899242 9.490945626930909 3 1 3
209 1 1.4098637552077407 3.190442722411855 9.87460789245554 0 -6 -2
376 1 3.0354060627295136 0.7839136122098118 9.134468086304532 3 0 -6
439 1 2.6354100783869425 1.7492179877364213 9.202453945262834 -3 3 0
202 1 2.2198576548263835 1.0454315232689781 9.763997942211354 4 -4 2
849 1 4.177294193677718 1.3994358637894802 9.999449077765401 0 3 -1
730 1 4.030611301402274 0.19435818291934415 9.53043496101399 -2 -5 -5
400 1 4.061987639828369 0.929174375152312 8.74729685598661 1 0 3
861 1 0.04148654444904508 3.31956455293874 7.323820806313954 2 3 2
109 1 0.9436469177907112 4.306231235748839 5.591903973800797 0 -6 1
293 1 1.8602149106527561 2.7047539897794435 8.777080767397667 1 -1 4
41 1 0.8523167017475665 2.138362885219965 8.636674460889285 -4 -2 -2
144 1 0.3802479197565093 2.669858508462127 9.600437344632631 -5 2 1
658 1 3.3251131444179416 2.7721242436028306 7.543814124990761 5 -9 -3
406 1 2.5091226603093824 2.306023930526903 7.917903788532817 1 3 -3
652 1 1.7490305003264075 1.574202783376186 8.63639605136755 5 4 -2
438 1 2.4935570502554043 2.7065375644669816 9.8435462270215 -9 0 -1
630 1 1.259313245011055 2.025658956233728 9.64151648333712 0 1 -2
372 1 3.8581094381730217 2.1856502672275173 9.426721925805639 -3 0 2
637 1 3.69437701991014 3.07057932979129 9.010380438853984 0 -1 -2
574 1 3.469747895177821 1.768362360913806 8.466074675368228 4 -2 -2
39 1 4.514741285754872 3.150047471529709 9.6116080163988 0 -3 3
766 1 1.7812048860894238 4.402787391208647 9.781923190965566 -1 -5 3
656 1 1.284892875966624 4.462359499306941 8.744779167455563 -2 0 3
408 1 0.8039551208437741 4.037217351991732 9.605941884581124 3 1 -5
593 1 0.5358714909708729 3.3970033839752007 8.6734020082988 0 3 1
173 1 0.3946697265724277 0.24800000971026065 6.272129933789733 -3 -6 2
803 1 2.107085443828232 3.6208374497428557 9.323340989071713 -2 -2 -1
620 1 2.181156488721052 4.396936169003876 8.243550612119547 -2 1 1
623 1 4.525625220724442 4.5809050499029045 6.223942359822744 3 2 -2
727 1 4.7093007659654615 0.7076495281480422 7.207039570018232 3 -2 -1
687 1 3.0748883912845635 3.799505733565974 9.20243475569835 7 0 7
626 1 2.675155050651583 0.15924417290435855 6.712334244257168 -4 1 -2
200 1 4.91486486387417 0.6021762633740799 8.194614486703015 1 -1 -1
268 1 4.900830277623021 4.27563838399186 7.780645984689241 0 4 -3
397 1 4.952093338771939 4.996780281996682 8.49493472806443 0 2 2
214 1 4.249890323218322 4.7455472148659235 5.200581653544332 -5 1 -2
508 1 3.0642226389077205 4.344571113333425 10.070446970242987 0 2 1
804 1 0.5351002087718024 5.6205008134693495 0.28849288532976003 1 -3 6
569 1 0.8651642933836752 5.279734309265895 4.987098116609322 -1 -1 0
779 1 4.044340394747677 8.836099976355953 4.215597130105449 4 0 3
353 1 2.779100069460592 5.542658232062199 1.713791159484303 1 1 4
565 1 3.3140584384720984 7.139408524299156 1.5224869686032951 3 -3 0
794 1 4.401103855870007 6.501900263073086 0.5814627994287386 0 2 -4
174 1 3.341674758016132 8.950703557479036 3.3612786590511035 2 -7 0
739 1 4.694831693152178 7.111811779286897 1.4969066235700064 -4 1 3
138 1 3.6682282595564684 6.266646420070274 1.5894018183523615 5 -5 -1
265 1 2.3059184114525464 5.250902888473013 4.831603653895942 -2 -3 0
38 1 4.727867375549414 5.6166407267069705 1.170859896111825 5 -1 -4
747 1 3.793891180436548 5.77334122067006 0.6727074667342714 3 3 0
463 1 4.955008599396626 7.427127582738581 2.634104126853717 5 -4 2
854 1 4.614393230754778 8.929707504035951 3.2875635398264813 -4 0 0
245 1 0.3184723902372273 6.70425352381454 0.6698632830775082 -7 3 -1
417 1 1.2882220529181647 7.8617100773316615 0.6103958609531637 0 -1 -3
340 1 2.2173848400149025 6.995753519325137 0.8964851798593664 2 2 1
105 1 3.0117678791003155 7.807892508373519 0.6554368597865385 -1 -3 7
584 1 3.9274563519116676 8.415287612453069 0.8135122655675939 -3 5 -1
65 1 2.8418428753217664 6.056293182762732 0.9087211996662311 -3 -1 -3
844 1 0.05008063562159462 6.644027528828622 3.8074584338203734 -4 3 1
532 1 4.021548879429161 7.918517049324559 1.7327289154672545 -2 0 2
554 1 3.7912200527687143 7.276774125631509 0.641814926718545 5 4 1
140 1 1.186266102452708 9.145036062336057 0.554249229730526 6 -5 2
534 1 0.5130942665949509 8.345561434120794 0.5439824413483325 0 3 1
87 1 4.940665438325692 9.608868574027344 0.16762059934864465 3 -3 0
384 1 2.3271023750918434 8.480403505166025 0.8682204346770077 3 1 -1
180 1 2.348910928605413 9.42464120675652 0.6384767380331358 -5 3 -2
685 1 2.052837519890266 9.256914269704625 4.019921705485162 6 -2 -3
280 1 1.7384840327666573 9.775159773138137 1.4273261744141104 3 1 -2
114 1 1.6483292935930192 7.615282953786016 1.6485495323819706 2 -2 0
511 1 1.9929467191721157 7.208836365808272 5.012756270609287 0 -2 1
223 1 3.393604895477362 9.381608882413223 0.6715438423892517 0 0 7
31 1 2.8557930616799987 9.29725059596254 1.6776354821937491 1 2 2
110 1 4.788183610481245 7.875806011916115 0.4611758483573206 6 6 1
846 1 1.0527937252134822 5.623069904691591 2.2568725245572763 -1 1 -6
272 1 0.16214147737471415 6.0244922762656214 2.566653219508692 6 -4 -3
436 1 1.943253557750529 6.115129587827119 1.3351882869133225 3 -3 2
211 1 1.4308734356488637 5.422449464305756 4.202491839875515 -1 3 -1
850 1 5.035319955231968 7.954535778857204 1.5903113370914754 0 -4 -1
546 1 2.4246753750309638 6.8976266466114575 1.8920727125252 3 0 4
156 1 2.0311966746217385 5.934117867627737 3.6011689927054302 4 1 8
706 1 3.003531873286424 5.74837468885457 2.7744409237238945 -5 4 2
636 1 4.245820417987174 6.693569672449801 2.3172808712894604 -5 -3 2
221 1 4.725677902594141 5.852726230692776 3.0758700252853757 -2 0 2
663 1 4.00043944951856 5.405321452877456 2.0166589301113254 0 3 -4
234 1 0.797378426697546 5.97581869851056 1.2821275882613787 -1 2 -4
45 1 0.5960854584440208 7.474002950320723 1.540764835922873 -4 -3 -1
662 1 2.128454779146757 6.106084326423726 2.3866855372917746 1 -1 -4
419 1 0.48303132975806745 6.965753365703477 2.9506830974637523 0 0 4
809 1 1.7502226351066754 6.819460887223367 3.0828157080806755 0 3 3
190 1 1.2344792478007236 6.852823969179631 0.8062581824955161 3 1 1
231 1 3.0913501731687356 8.255023227324333 1.5306079991824142 1 6 1
379 1 1.0604992323056712 6.826725122004899 2.0956052992791063 0 -4 -1
121 1 3.575343076359072 7.424726459975035 2.4223252601110365 -2 1 -1
787 1 2.0748489400139527 8.64058365427602 1.9219949271457362 0 -4 2
681 1 4.240464754231391 9.404461207823394 1.1585310328901357 0 -2 2
11 1 1.4830619735304087 5.280908288042007 0.7703966324449224 -1 -4 2
611 1 4.894499123315321 5.859054275796973 4.21289039300247 2 -1 0
23 1 3.943609422350117 8.154806623985094 3.107553605986955 0 1 1
654 1 0.6179223557368071 9.380736156418033 2.3763953972488965 -3 1 -1
559 1 1.2505395632410576 8.695651314485591 1.4257702519259812 4 0 -1
36 1 1.5299423341401213 9.016535108919959 2.6925490699033063 1 3 -2
104 1 1.3150205648750375 7.782795715158321 2.5604465487522314 1 0 4
205 1 3.8839643272649833 9.922261043847298 3.4692061238694625 0 1 -4
411 1 2.2241030786297094 9.611317389252113 2.4462702227748068 -3 1 -6
213 1 3.50722071017169 8.704310460166505 2.3138714211522 1 -5 1
197 1 0.6942219969286709 9.522002875630603 1.4093679463337037 2 -4 1
619 1 4.531557377395575 8.571938282023627 2.2350960934418165 0 -4 -2
812 1 4.238413957119053 9.587406998836904 2.1906370246896842 -1 -2 2
208 1 2.0807631602598136 6.1524762962107165 0.09567834347280436 -2 -1 -3
347 1 0.5299345642253497 6.145704548299039 4.4723475394801495 4 -1 2
668 1 0.44906103317232215 5.238469670090035 3.148666414151157 7 2 -1
676 1 0.8130564936247516 6.15300225692241 3.3125740023674126 -3 0 3
322 1 1.5374073940687454 6.778728477433073 4.221811812379139 4 5 -3
639 1 3.313955047386057 5.182777519209534 4.225822865246614 -4 1 -5
346 1 2.9632568055019535 6.445258110214101 4.87835080085121 -2 -7 -3
862 1 3.9800098080550836 5.728150328002785 3.639336377058284 0 -2 -1
342 1 4.00741469858131 7.1922351905849435 3.382652558614791 2 -3 2
478 1 4.439419733893635 9.862944247939474 4.792974153572734 2 6 -1
735 1 4.885021952544163 7.018399067992948 4.820939284185098 -2 -3 1
420 1 1.950697404510987 7.729674342091073 3.8590708853507936 2 -1 4
101 1 0.7184728108373037 8.624598533868 3.29110250870301 -2 0 3
216 1 4.5303864123032 7.999398084925148 4.832582599731333 1 -3 0
374 1 0.8595242331278724 7.545447620643451 4.002312334297645 1 0 -1
70 1 0.9775097112953233 9.511976525678321 4.05074551240233 4 -2 -3
8 1 2.832749397327419 7.291824245345711 4.345213477541858 1 -4 2
840 1 2.7292164323935006 6.659423879566724 2.940642447241472 1 -1 0
19 1 2.7442497803301014 8.257797089809557 4.478707338081548 -3 -3 0
378 1 3.616821112548299 7.305858420064765 4.990291457041328 -5 2 -1
598 1 3.6701113718289804 7.942332373707546 4.162359768644935 -2 1 3
815 1 4.905392047114318 7.922026386488219 3.8217035728895765 -1 1 -4
843 1 3.579646354940435 6.751798369253608 4.070203091715021 5 -4 0
320 1 0.4920552609886387 8.458054722414936 4.420424643111313 0 6 1
477 1 0.319992121107895 5.115924290979534 1.8848182909966993 -4 -3 1
712 1 1.4969601368940848 8.281006322119389 4.700783572754858 3 1 4
568 1 2.315482803983653 8.50374964991519 3.0533445044236505 8 -2 0
836 1 2.925387040166359 7.718888634639882 3.2352200649236726 -5 3 4
457 1 3.149650732337966 9.196866333610563 4.401306529556577 -3 0 -2
514 1 1.4065409448344333 9.952955751133832 3.306468393422396 -8 6 1
191 1 0.2581444882785748 9.7864643380809 0.4926986151922727 -3 0 0
486 1 3.287238736129762 9.843199285537814 2.6376626938574983 0 0 -1
106 1 2.155591672741274 7.76568232142424 0.03704605136956519 0 -3 -4
81 1 4.882862767687224 10.014421055020508 3.286190889779795 -3 2 2
403 1 4.9560989343130935 5.065726519398507 2.1003977400735607 -5 1 4
427 1 0.08087807628997293 6.65967956442929 1.715470964215362 5 0 5
35 1 2.1217432699531376 5.111362689105787 2.487099345086019 0 -1 -1
10 1 0.4138898032052693 10.018546347609492 3.2262925129366673 2 -1 4
573 1 1.5557897914862058 6.1575288640078565 5.026331482067877 -3 -1 -3
524 1 0.026548152979892728 7.607443477514676 0.004633801707326413 3 -1 0
248 1 0.4835300421233043 5.068349721037852 9.526539225623484 2 0 -3
30 1 0.6481934890166821 5.726205434889683 5.936269771046539 2 -8 -2
2 1 2.964540594076201 8.586281601043465 10.008155999830617 -8 2 -2
665 1 2.3724891362952474 9.848721604271011 9.738706732982665 -1 1 -2
829 1 2.7242816597367048 6.635020944006387 5.785171894668775 0 2 -2
773 1 3.2774378188737727 5.582188273487866 5.389511493105041 1 -2 0
744 1 0.33920509757755585 5.456134237894265 7.565582376861622 3 3 5
230 1 2.164407431454918 9.570797091337761 8.355400245647562 -2 -1 -1
26 1 2.615345850904666 6.084775567456752 6.726802361517557 1 -3 0
713 1 4.1829757674340025 6.962875197116677 9.587794553100247 -1 -4 -2
339 1 3.543592544443395 7.2903378741050044 5.999871666605618 0 4 -2
20 1 4.24548534576519 5.959080850909868 6.341218855673828 -6 -1 6
507 1 1.1519599852814686 9.712296906089168 6.123057127885655 -4 2 -3
302 1 4.26683604080764 6.089453106379308 5.079407137413459 -6 4 1
74 1 4.985015848695281 6.738851276398385 5.8552902804926505 -3 -3 -4
334 1 0.5476248006622436 6.959441314453158 6.022003139164463 -1 4 -2
768 1 1.421875808281093 7.633862685513439 5.935956101500809 -2 -2 3
698 1 0.5871976847245948 8.009498226947649 5.569915161678897 1 -4 -4
777 1 1.3410628559047246 9.993839234675292 10.025034494698781 2 5 2
818 1 4.8014045342597464 5.498122347952288 5.593598736084463 4 4 -1
823 1 2.7472673301180794 7.883522309959681 5.514986155618473 3 -4 -7
310 1 0.8241901748903318 9.994969893151888 8.062654412772275 1 -3 -7
666 1 2.6269101184528183 5.099880905168734 5.9734377815512785 2 -3 -4
123 1 4.596617233911661 8.008507167388554 6.261131936228805 -1 0 3
734 1 3.7973406605298328 8.555512451335996 5.986290575506663 -4 -3 1
188 1 4.65987908929161 9.010157107261643 5.457439976823583 2 -1 5
260 1 0.13373608103273074 6.4407824324664755 5.303857905930628 2 6 0
608 1 2.668005234374768 5.229509530483336 9.836050805972564 2 6 -1
459 1 1.1371129611438102 9.183804970859468 5.18575003144298 1 -5 -2
679 1 0.10162563703713187 9.157916425001643 6.7182391839172215 6 -2 0
634 1 4.016405573712698 9.888785767940703 8.599375835576518 3 -1 -6
470 1 3.0282638606226127 9.417690822777688 8.880020499130733 0 -2 2
770 1 1.7215292533549102 8.5135198212719 5.91111717874841 1 4 -4
693 1 2.719794619097704 9.022417378902665 6.305761087109062 -4 -5 3
500 1 3.5770790127049343 9.42762978698731 5.4062530802853335 1 -1 -2
826 1 3.6211696394900716 9.414174143154113 6.459556582249171 0 -1 0
6 1 4.383559498826847 9.952829717192266 6.098775505745964 -4 1 1
525 1 4.726700898910809 7.000079815537239 7.956531943787539 2 -1 2
704 1 5.035071785054315 6.082430248930887 8.724918506832248 4 1 -5
401 1 1.4960201429524858 6.170752770607049 6.39187977853461 1 1 0
288 1 3.7554827444580017 8.729778049634621 8.85973620684958 2 -3 2
645 1 0.18644732397301722 6.5153552349655515 8.008765238681798 1 0 -4
413 1 4.568319262089402 9.330289508411052 9.155579282675292 -3 2 0
258 1 0.8889353554017125 7.932343037802991 9.53681574824499 -3 3 0
835 1 1.6281844493231108 5.878824374091693 7.402322757238776 -1 1 -4
271 1 3.551506057312085 6.415965025147857 7.0662604905111985 1 2 -1
726 1 2.4444017808828167 6.753316707570618 7.564427449450477 -1 -5 -2
27 1 2.779877937337107 5.655504361591089 7.640078040577506 -1 2 3
741 1 1.461758953225506 6.988421028238867 9.812039988074819 -3 1 -1
158 1 3.9746588831156746 6.260663710730873 7.913258989634303 1 0 5
461 1 3.5780808104343165 9.393745576718867 9.68491625245326 -2 4 -3
567 1 4.9955826555910425 8.717731294106327 7.739031442326271 4 0 -5
629 1 2.090309359389478 9.940771153591768 5.68277877155509 -1 -1 -1
811 1 1.1264445600849764 6.734074124814925 7.226196694143194 2 5 2
604 1 0.40181545710772054 7.994812709234489 6.536786645375362 -1 -1 -2
154 1 0.5854149247920879 7.42526285200828 7.552611256011351 0 1 1
549 1 1.999032844353407 6.92218937922944 6.627600008536962 0 0 -1
71 1 1.587135746686949 7.829174000815312 6.924050159595144 8 -5 -3
673 1 1.7191737765688868 7.583183560333385 8.087457116664998 5 4 5
111 1 2.9365426417715415 7.462372474428519 6.982857235980784 -3 4 5
201 1 3.2414853089469995 8.150748056856889 8.08029884488438 -3 -2 -4
597 1 2.969542563238524 7.0323353686909345 10.049045657749053 1 2 0
47 1 3.6962033038503153 7.207289511122748 7.667197536553757 -6 2 5
601 1 1.7923990653730058 8.764089532614676 9.671037154446177 -1 -4 -1
528 1 4.415846492859585 6.8430205959706685 6.790211098547393 3 -2 1
17 1 4.067944817991917 7.913249037954306 7.108683122004312 -1 0 2
61 1 0.6110489070743783 8.107262657885663 8.334051305476477 6 4 -1
832 1 0.5651017374516263 8.950878990643288 7.71525590085918 2 0 -1
529 1 2.0523893728940927 8.538384050827684 7.824651537322642 0 -2 3
40 1 2.524636369826264 8.333339799188037 6.996796623307116 -1 7 -2
407 1 2.963885697335463 9.393152713643053 7.500398344899201 1 -1 0
13 1 1.0283550286123266 8.77663889337297 6.778271624318476 -1 -1 -4
816 1 1.9305591921040286 9.776184462762393 7.356239047121335 -1 -4 -4
853 1 4.4654632345407395 8.200159157382 8.436655840259768 -1 0 -1
9 1 4.017110140916848 8.744070566879792 7.680003163970409 0 -5 -2
350 1 3.9645202547581495 9.703926095564274 7.348682325229677 -1 2 -1
710 1 4.553348884422203 8.944720163464943 6.559925028729424 -2 3 2
807 1 0.4532778380397494 5.5114083913638225 8.62471142464357 2 2 -1
749 1 2.2771268241319658 5.400372786531914 8.659497583538084 3 -1 -1
257 1 1.4444949564146992 5.696078846941512 9.223124089046898 -2 0 2
614 1 2.4279329777534433 6.573442197256655 9.370677887852455 -2 -5 3
523 1 3.7358798388083003 5.070513644482968 9.82692997590432 -1 1 -3
633 1 1.8133539965633212 6.422081056114239 8.560472285224296 -5 1 0
354 1 3.0696372728938055 6.066287229040928 8.46091125274192 1 -1 -3
456 1 2.3896436970112642 8.633857975832678 8.810315947887544 5 2 -4
543 1 4.036880420270942 5.898420484594642 8.894462900305518 -3 -2 4
331 1 3.631588431567494 6.858920012344815 8.723646631904092 0 -5 -2
259 1 1.9348019084127435 7.696361283879938 9.092227922353523 1 2 -2
560 1 0.8534318633135393 6.919137993916716 8.97694685775178 1 -1 1
491 1 0.26156452021506504 5.189942485001054 6.61309230309438 2 3 -1
825 1 2.9644197592939348 7.947704334194016 9.149611864502814 2 1 4
468 1 2.7118283210091647 7.34851596429669 8.427323781995174 2 0 0
496 1 3.706260367894679 8.003153672876097 9.847497626569528 0 -5 1
497 1 3.2693597274316892 6.10627926371367 9.869699783677156 4 3 4
371 1 1.9485007510332804 5.115149507501333 6.836618750800673 1 1 2
416 1 4.412794509738312 8.661395938860045 9.9210661354497 0 -1 4
414 1 3.592096483482445 5.465097885394581 7.035281883605952 -1 4 -1
239 1 1.3467731898155948 8.757237469967114 8.652334786105891 0 1 2
390 1 0.7330213512493866 8.9567766371114 9.623302625278367 -2 -1 0
309 1 0.34497034325687326 6.215211591639457 6.897235813430439 3 -1 -2
440 1 2.5988017340634704 9.03401808543675 5.330007148621824 2 -3 -2
137 1 1.4974273725192573 5.231562772821707 5.883298319394321 -2 -4 2
822 1 0.9491020880913235 7.178246790455769 5.09046735937743 5 -1 -1
263 1 1.3836819973681196 5.185100195281744 8.061585136452827 1 -1 3
472 1 0.8130689137486434 9.799354423050339 7.100214460858925 3 0 -3
115 1 4.79669286531357 5.585875554141858 7.562755715453493 1 6 3
349 1 3.902471973415256 5.299338456367843 8.047895638101853 -2 -4 3
782 1 4.548900397491803 5.828883161822497 9.90083593780491 -4 -2 -3
78 1 3.595265614014346 8.32414109786434 5.1083366878565135 1 0 -1
203 1 5.077632977250495 4.935414537062646 0.44329926366514943 -3 -3 -2
117 1 8.497069632030314 4.887500430136735 3.3136741341775275 -2 5 1
526 1 6.442998261958845 1.955531913555781 1.446058970651107 3 2 1
362 1 7.7000754348219775 0.6287348957915829 0.23302038408068484 -4 4 2
530 1 7.035320214643864 1.3851676483426616 0.7433094964527077 1 -3 2
255 1 8.60637198927956 0.9807397197446821 1.4079197036424043 -2 6 5
120 1 6.793822470394775 0.5823348620411187 1.5238896945104274 -1 -4 1
833 1 9.835253946299176 0.1712923463049484 4.336993406502703 -2 2 0
711 1 9.547821579014379 0.876927744344794 1.7062497059437303 1 0 0
184 1 5.440620278137288 1.6267385799190035 1.2313623669602196 2 5 -3
793 1 5.187892999103913 2.3772730002491818 0.716761789117692 3 1 -2
299 1 8.266323104926462 4.462051756918329 4.2199211018894545 2 1 0
60 1 5.861182467074384 3.080148438739692 1.0145471108594069 1 -2 3
98 1 5.133072541144879 2.863116602640108 1.8267407577030343 -1 2 1
337 1 7.2492652024262005 2.6601667328150307 1.2857137344248377 1 3 -6
703 1 8.442160095542905 2.5055900666981565 0.43262101766607663 -2 2 0
801 1 8.292528131123774 2.39463247896996 1.5160000908961917 -3 -4 -2
495 1 6.880062847072934 3.7838175860987517 1.1224585483947747 -1 0 -2
172 1 8.988612068717451 1.6307444466240895 0.5738689055811955 -3 -1 0
555 1 9.561063846746915 3.324825848918573 1.7158690297887615 2 1 6
576 1 9.107640572961301 1.8433018817176234 1.8355220261417018 -1 2 -3
631 1 10.026344167173136 1.2385101711328843 4.79469954326543 -5 2 -2
142 1 9.366557286057668 2.552486981493397 0.8720499010668191 -2 0 -2
542 1 7.362780300470668 0.3103353408721578 2.879865270922096 -2 0 -1
146 1 9.892248627567627 4.319228037576248 2.252279016183566 -2 4 3
232 1 5.962594441583989 4.467292228155782 0.7726225368131842 0 -4 2
343 1 7.309133530723412 3.1671445608592426 0.3150158775279329 -3 -1 -3
644 1 7.63916294149948 4.658984278200222 1.3766238920225418 -2 2 -1
3 1 7.8856622929012445 4.003483015396558 0.6415133073632553 2 1 -1
609 1 6.842176279014506 4.220984164085857 0.16643762533110593 -2 -6 -3
348 1 7.089756096915274 1.3030531687726965 4.952644255163825 -7 -4 3
664 1 8.72866733936848 3.402127453684239 1.097377848223752 1 -5 -1
134 1 9.743980851754786 3.5251221276642366 0.5259232905836889 -5 -1 3
433 1 6.206771004434741 0.8919979423828244 0.35795280952882996 3 -5 -3
227 1 6.409616263801384 2.6098807391718437 2.297657628153717 4 2 -4
67 1 5.455747931002544 0.5984538026902194 0.98045393222345 -3 6 0
827 1 5.104091204784135 4.874919038721847 4.830328223510704 -2 -5 2
847 1 5.437407811016959 1.1176937055274097 2.3151509472215 0 4 -1
505 1 6.131933931436209 1.450347364872381 3.004247846575422 -1 5 -3
450 1 6.35030168173702 0.5466173177084812 2.477258849345631 0 3 4
603 1 7.884173389494259 1.1098624897025766 2.4094737307428207 -1 -1 2
235 1 7.183797831169652 0.8641711304267058 3.8309660239914725 3 1 -2
152 1 5.149690348903749 3.7521855365531134 0.15708138590556853 0 -4 4
373 1 7.746486258190312 0.2698947796189311 1.8672291769894849 -2 1 0
155 1 6.077648918875162 2.088273278461103 0.444167938873875 0 7 -4
388 1 8.686008290948642 0.37789869027976425 2.7293080645194485 -1 -2 1
24 1 9.190325015828437 1.3514835393309506 2.974358709396925 -1 -3 8
475 1 5.371355103441013 2.1362280180915167 2.669206381524056 -2 -3 -1
328 1 5.441075830507847 1.1220159936299865 4.208069649594591 3 -4 3
139 1 5.95317815597968 3.5636392146628397 1.9097610165661403 0 0 -3
466 1 8.106558744024944 3.6682999302679513 3.522097468317125 3 2 5
185 1 6.652389250660746 2.4206135635302894 3.4822760216619053 -4 4 -3
435 1 5.675461651069093 3.2676064124893283 3.208607653085423 2 -4 -2
95 1 7.08840430019233 1.7230221553021863 2.3562381638525394 2 1 1
651 1 7.441478241494618 1.7372198733805244 3.4066018944673795 -1 2 7
178 1 8.198549428192651 2.173503306452138 2.5162951865615213 3 0 2
33 1 6.722066294914417 3.5549616178343837 2.71166189755718 -1 -1 -3
92 1 9.561100930218313 2.491391197309015 2.453050609582088 -2 6 -3
1 1 9.298259780560977 1.8226019759792966 4.977067482789687 0 3 2
395 1 8.67608432866443 3.006077442911488 2.2693261562353215 2 -2 1
132 1 9.460885654090216 0.5197329889606572 0.7345996546605775 0 4 -1
93 1 6.512381779191056 2.1735907679717026 4.818214587704626 -5 3 -4
367 1 5.798869600722875 4.647252360275312 1.7823282439348822 -2 -1 -3
274 1 8.216153084798991 1.7014379073719892 4.974619702948813 -1 4 -1
746 1 5.780861138853281 4.336739709761744 2.7581144496376346 3 0 6
723 1 6.10417211623557 4.838064730987301 4.700630035744418 -7 -6 -3
541 1 7.784103862028838 3.613054020923891 1.6312773317758102 -1 -5 2
839 1 7.850401887094601 4.415840122238718 2.3505438676508326 0 -1 0
133 1 6.752684093172758 4.454322674086956 2.3885961115491146 -3 -7 -2
404 1 7.568864811956146 3.1996683124343517 2.7816825829598697 3 2 -2
125 1 7.056058263280081 4.79169322350668 4.4346307672405265 3 -4 0
624 1 9.024523099602428 4.126828732709181 2.8356609789502416 -4 -1 0
564 1 8.813681754180573 4.148898463547122 1.889498209999493 3 -2 -4
16 1 6.42093106866005 3.3604654561331473 4.288398351584601 0 0 5
762 1 6.148187278294694 0.37681413843229017 4.4004326747058995 2 -2 -3
612 1 6.476244225673888 1.6111541787049104 3.9852898693413246 4 4 -3
510 1 7.3535743858351825 3.7528034023435057 4.6853741156282425 0 -1 2
304 1 5.663179559325808 0.6449658596019825 3.3083342467625783 0 -2 0
297 1 9.896369438623722 4.227921284476455 1.1727301119535238 0 1 3
287 1 8.005926873126523 1.5779480121383573 0.6000751301184146 2 -6 -2
732 1 8.34814482058988 1.7094940969238999 3.936757850775936 0 -1 1
613 1 8.810410623305318 4.6208241657446525 0.8953366542106661 -8 0 4
264 1 9.506228884519324 0.3891411653440483 3.2289461904452814 0 0 -1
802 1 7.373495691305617 4.38178138251346 3.4243505655833912 -3 -1 1
314 1 8.241942030034544 0.6159125970955222 3.544103678287824 -1 -4 -1
215 1 9.086224668556227 0.8652740890062549 4.124656059953666 -5 -8 1
261 1 5.539375442204922 2.228631839099897 3.6625756290803873 -1 -2 2
43 1 5.470522153752235 3.139227623121957 4.158542342164541 4 0 -1
813 1 7.300385466717519 2.3698886221308144 4.269400875796388 -4 -4 5
204 1 8.34282976379847 3.567879520270724 4.804982847264056 -3 6 -2
757 1 8.058156296964446 2.5838518317743673 3.4943580657253146 0 7 -3
731 1 8.762503625041246 2.6167837284541515 4.430017667182994 -3 -4 0
447 1 8.040535791703029 0.6946105273859803 4.619019628173911 4 3 0
292 1 9.424661685143292 4.718764348339904 3.7102705510474454 1 -1 0
398 1 9.491911639587336 1.8336535830181295 3.946989404253759 -4 3 2
305 1 8.978255716562298 2.3027016427919214 3.1902154066659327 2 -1 -2
56 1 9.38893325897272 4.222220368249651 4.610977497334964 -3 -6 -3
386 1 9.157348311801861 3.610980186666047 3.6570386053386663 -2 -4 6
368 1 9.922076038769662 3.2341210097931476 4.181396978745224 -4 1 1
501 1 6.50173752530855 4.203705510302689 3.644359333169586 -3 4 -5
437 1 7.214728374146536 3.26304719567573 3.8168055986477256 1 0 3
77 1 9.971479620732515 4.90119522493431 0.2958021138625882 2 -2 2
583 1 9.689059945377622 3.4241177490614594 2.802817000842079 0 1 -5
616 1 6.749121460667413 5.01867203371394 0.9791688635673602 -6 -1 1
729 1 5.417172073994277 5.022163594827211 3.811006562986905 -3 4 3
366 1 5.733126727185805 3.8157141476143352 5.182953552920849 2 -1 1
195 1 6.638895130983303 1.1415814317746005 6.37204081788874 0 -2 -1
426 1 9.843107472412314 0.3973370341110675 5.2533838573772424 -3 1 -1
482 1 8.72694916798333 3.268993051411654 9.901604119036463 4 0 -5
845 1 5.848697922745487 0.003570212166548867 9.65367346430114 -3 -1 7
751 1 7.797349494987059 2.378909165016055 8.003272266886007 3 2 -5
58 1 8.499824163177236 0.2089332620118791 6.232090014239013 -1 0 1
179 1 8.885148766309864 0.40832737399110547 8.027013708055303 1 -2 1
246 1 8.32544967377623 2.0365355598669455 6.015425062627459 0 3 5
165 1 5.114678133735156 0.5907580974531726 5.176212801514655 -1 3 3
112 1 7.437790323770889 2.671898177717771 5.381247243602457 2 -3 2
717 1 5.16503177285252 2.886580501460238 5.074565664998918 2 -1 1
758 1 9.708141113199387 1.8312399804957917 6.847905079665645 3 -1 0
187 1 9.640779488275781 0.8801544766673628 6.1594687653850215 2 0 -1
344 1 5.716972294455817 2.40324274340782 5.954648925554628 0 -3 1
316 1 5.597590316615175 1.705101847482513 6.700193346790976 -6 -1 3
841 1 6.506334059051324 1.9796297616295928 5.810558150834289 -1 3 2
753 1 7.417336040713226 2.51778482782506 6.3740862548559525 0 4 -2
161 1 6.619042468185781 3.308109259821685 5.307771711473979 1 2 -1
783 1 7.500515450948682 1.5644239998122846 6.349377568762341 3 -1 2
718 1 9.35896642047326 2.1456450059112813 6.006915543402324 0 3 -1
864 1 9.434183381615636 3.158864189072433 5.981695158688481 -3 2 -1
805 1 8.867189343468795 2.4527092645333024 6.990102429429587 -3 4 1
224 1 8.668430694761355 2.956860933473612 5.49935206199543 2 -2 -1
345 1 9.500273398260228 1.2223085311705608 9.94862634402392 -3 3 -2
498 1 5.3278642627775294 3.3926294321627317 6.1857082839031605 -2 1 -3
430 1 6.821473163803193 4.241103366443316 5.465963174633984 -3 5 3
700 1 7.943071924509795 4.266619058221061 9.599603181054297 2 -1 -1
492 1 7.941045041775887 4.23170852815975 5.3943681222688 2 -3 0
103 1 6.85172323149869 4.4483943869275215 6.953242911259344 -1 -2 4
42 1 7.55084900915738 3.5275793626580065 6.093239886678034 0 5 3
391 1 7.936002666503602 4.819846487090724 6.518917032117447 1 -1 7
671 1 6.1719355443648105 0.7724046333457354 5.307708031299597 3 3 0
579 1 9.563829203895502 4.928403386203381 7.963024443448314 -4 -2 0
124 1 8.626925855456376 3.780889937094216 6.2048518500915595 -4 3 1
176 1 9.237930981951571 4.503505302423737 6.411128892019041 -4 -2 1
750 1 7.0804317266033285 2.264108233940169 10.05074646944287 -1 -3 -5
607 1 9.130224101542165 4.319417457193785 9.977439921704622 -3 0 0
22 1 10.005980223675227 4.763146775705349 5.670283090505124 1 1 -4
458 1 6.9850978195045625 1.0474605628705935 7.37311644921751 -2 -2 4
135 1 6.836914362223643 0.5384350813697169 8.125041208005829 -3 -2 -6
247 1 6.701546492700773 0.08016385735821144 7.210680391398937 -3 4 0
544 1 8.543893035784446 1.0314173225406655 6.790898497578658 0 1 3
817 1 7.890797992846824 0.6572967573496139 7.846258117122853 2 -1 2
778 1 9.873942015830558 4.4680671698981405 9.067842235043814 -1 2 -1
570 1 9.303560291915407 1.3469178685182146 7.614520532182562 2 -6 2
381 1 9.647414633345155 0.4191328424310963 7.194628968571061 -1 -1 -4
285 1 8.48210045777112 1.659977806440406 8.31868679968569 -3 -2 -2
689 1 5.732560689190826 2.496812777161089 7.3910673214071725 1 2 3
116 1 6.811366216086277 2.141626819965085 7.12985709251877 1 5 -1
702 1 5.380146917199948 2.21334261013628 8.270056628277649 1 3 1
487 1 6.512060429666164 1.8379494616169687 8.018683368439996 2 5 -3
118 1 9.037766223677318 4.3504458428789725 5.487680505642875 -1 7 -4
641 1 6.686949292258889 2.9591566261261626 7.6538953694202005 5 4 2
764 1 5.7165413237208975 0.6065765097713954 7.141447628701474 1 11 2
473 1 7.6724376614924825 3.174995374701719 7.2068724133350965 1 -2 -3
646 1 7.925816696830366 1.6945244090118994 7.229454245555063 2 -4 -1
462 1 7.487171914552438 1.4208072820451896 8.362980246395795 -1 -1 -1
225 1 8.335792136912648 4.068143124796094 7.199474724379927 4 -1 2
32 1 7.841513885987545 1.6011637824924165 9.671993063960969 0 4 2
831 1 9.509694045766572 2.693234353431237 7.8668385625193835 2 -4 -2
250 1 8.400471445439608 3.248610419504284 7.947539391477996 1 0 0
14 1 6.810474958096197 4.461232545357782 9.030076511680312 -1 0 4
418 1 8.559968328464272 2.4852718893222545 8.91851775987745 -3 2 -1
102 1 6.228012822123417 3.1052173654478947 6.449869972865433 -3 3 -1
642 1 8.218300353807964 0.16869112754774554 8.830795212361169 0 2 2
282 1 6.01955546251295 4.07144693732855 8.083861280404186 0 -3 0
452 1 5.766672767520785 4.30841542815358 6.998488282917931 -6 -1 -1
550 1 7.05083906909511 3.8195598905746295 7.855229220526249 -1 -4 -1
97 1 7.628130349886155 4.692551692760693 7.601306928519343 1 4 -2
760 1 6.738960811847596 4.832467802055909 8.070099122160693 -2 -5 -2
364 1 6.872785974050317 3.475872875207148 9.558986649158962 3 1 0
716 1 9.66173077259751 3.904967924195399 8.278323016895788 -7 -3 0
474 1 9.204760940823826 3.3752602880824565 7.170316001026227 -3 -4 1
789 1 8.814615124867611 0.7420294979441626 5.396751080697242 1 4 5
46 1 5.656777378545364 1.183604501032895 8.18298014387031 1 4 2
12 1 5.547234962656496 1.3203824376445144 9.631347365039959 -6 3 -2
238 1 6.051899944622633 0.5929635077469785 8.8372184003479 2 1 2
632 1 7.1281741280152975 0.5748742831602002 9.138693615711789 -4 -3 1
763 1 5.0890694795882805 0.7680854447892769 6.3056928358318025 -7 4 3
638 1 6.903713453203612 1.2745161147417012 9.851734260074398 0 1 -1
189 1 5.418724925960054 3.1975338884862996 8.010541077012801 -1 4 0
163 1 9.93085331946211 1.085204850806168 8.721286340687344 6 -2 -5
622 1 9.270296066895552 0.4910688923279918 9.117873332296554 3 4 -3
748 1 8.705521737356023 1.3296476799214378 9.253187009019992 4 1 1
527 1 5.802792308855888 4.4515922148045695 9.930022583409862 2 -6 4
765 1 7.512129768329083 0.4152576974141046 6.363438860897008 0 6 1
128 1 5.334686897237589 1.4389004856619934 5.5829726155243975 2 0 -3
249 1 5.90346878805808 4.770703569496681 5.859229153700942 2 -4 1
605 1 5.9784563147766745 1.9523150762776245 9.12760717953503 4 6 1
396 1 6.098819115087665 3.0313255087750193 10.044815737987857 -3 -3 0
516 1 5.180263779241272 2.8760279565698577 8.993406543584536 -2 -1 -3
181 1 7.667901229641696 3.823114425245958 8.658144237309273 -4 -3 2
198 1 9.496300251503618 2.0426458877474363 8.53302894003479 -5 2 7
251 1 7.110560115655066 2.1545711612127643 9.040841869835702 -3 -2 -2
657 1 7.742113707418116 2.9787764879006446 9.265613394118906 -1 5 0
755 1 9.551226933411082 3.088739053936893 8.800649828075516 -1 7 -5
517 1 8.680740500535354 4.107117241970167 8.912065961333996 -3 -3 1
76 1 9.166174254902623 2.230479127353169 9.767588154190685 3 -4 -4
277 1 5.3093129213245325 4.1894106407499905 8.990466587179341 -4 -2 -1
166 1 6.037619864596745 3.0093654511335615 8.682955864769761 -8 0 -7
444 1 9.812936909070615 2.6641780963928627 5.095549774282478 -2 1 0
136 1 9.785857618388494 4.247482277019435 7.223686195962579 -3 3 -5
621 1 10.001141350720307 3.741344447118927 5.377469596193403 1 4 1
618 1 8.963635596582368 0.16808815701586766 10.03894355235259 1 1 2
63 1 8.344201239879204 0.11411877330017656 7.236320295762057 -2 1 -4
699 1 9.894945951288072 0.08415979425934605 8.446972149350024 0 0 0
333 1 5.397491084587985 6.328501757388476 0.8583776481531203 3 3 -3
737 1 8.736225549683004 9.895531088486411 1.278164707093234 3 -2 3
393 1 6.819402573618072 6.477228723216572 1.678830693459451 -1 3 2
795 1 7.372663165864307 6.204507523728009 0.414256336090496 -1 2 -3
512 1 7.663765705153212 5.070103180293374 0.1530942451843226 -6 0 0
674 1 7.388733589515508 5.6707701342837815 1.4593667260104743 4 0 -1
851 1 8.680638043422547 6.149308884304855 1.230003838184625 1 5 -6
321 1 9.714439629240745 7.434819274032139 1.2093429898130499 -3 1 -1
303 1 9.886596216991336 5.812865298569739 1.0433992228828612 -2 3 5
520 1 9.501896192675193 8.59014141353975 4.768372394998226 3 -3 0
481 1 5.546623596103069 7.305342596022957 0.9015245888825001 -2 -3 -3
361 1 6.148692923602481 8.145808233027775 1.3168111851650999 4 0 -1
442 1 7.156376362697482 8.887607400464724 0.3112745954734212 -1 3 -1
52 1 9.448399848863136 5.043490432115322 1.6029106894507217 -1 -1 2
469 1 9.08635454503618 9.746621277502921 4.715269041484457 -2 -2 4
281 1 7.575956180798757 7.003619880367282 1.1434804953502935 3 -4 0
776 1 8.19775085676427 6.818779801439885 0.10841260145553946 -2 -4 -2
504 1 6.502480328966272 7.200088077094971 1.041949460021547 1 2 1
210 1 5.6971369176617 8.119329318623787 2.3410801452225125 4 1 -1
683 1 7.17607701626596 8.22668603917635 1.1236653678427841 3 -1 3
365 1 8.507439152097419 7.258728089540641 0.9991720918402872 2 2 3
572 1 8.087389245859452 7.987003768056913 0.5975373853328588 -2 0 6
538 1 9.202460917301197 7.894177850025384 0.2152067817408703 4 -4 5
790 1 9.72671694978826 8.428576629208413 1.0655682859086062 2 -4 -2
691 1 5.751139745471979 5.482947037314166 1.2710935159359698 -3 -5 2
774 1 6.469814409226964 9.027032742163026 1.0831138815458796 1 -3 -3
237 1 5.9272448124056245 8.928523377999593 0.09696101240063196 4 -3 -2
4 1 7.3151656305587816 9.956560557875724 0.8939171170527687 4 -3 0
409 1 5.1195593906833885 9.276797781379706 1.5577728626037028 -2 -2 4
422 1 9.993111149806733 5.543444064651416 3.9576797231266587 -1 1 7
85 1 8.755623067959329 8.913768311314698 0.9971394864498064 -7 6 2
655 1 7.905903904743779 8.922604810979756 1.4928696497163194 -3 0 -6
196 1 8.324161455397531 8.73671347533153 0.09364895063265224 2 6 4
515 1 6.466911371093302 7.927507185872756 0.3499371148315409 0 -3 -3
217 1 8.04265326927865 9.419058130669132 4.690181574909035 -3 -2 -2
588 1 9.66084230536007 9.457735172439362 1.380318240526803 0 -6 -3
556 1 10.035511724527828 9.491648875513288 4.973543710412885 -2 0 7
855 1 5.1155800948697925 6.062604388320701 1.95898387311284 0 -5 4
738 1 7.011780324039392 6.095445925581446 3.4589709402790403 3 -4 1
69 1 7.089461133777185 7.299765857324421 2.180696195785937 4 4 4
684 1 6.398106959367672 5.579841080984037 2.1609382989011183 0 -1 -1
207 1 8.27800114583753 5.731363182183899 2.5739183793129228 -3 1 -3
518 1 7.201005547792112 6.197737729694624 2.514006160998298 -9 -7 1
428 1 7.986128959257099 6.217597174812582 3.314627052899507 3 5 0
423 1 7.773599472466935 9.72838653861492 3.6437566568481112 -3 0 2
113 1 8.656483940016567 6.750739753966881 4.036136471734676 2 0 8
628 1 9.259797029493713 5.865820730371825 3.3423766543840294 0 0 -1
275 1 5.594248910353204 8.69924265438894 3.501893449684209 1 2 5
99 1 9.193855200940009 6.089613019401945 2.256030453495754 4 1 4
145 1 6.144111248108323 9.890685561779748 0.578299796683959 0 -1 -1
289 1 6.109226538436874 6.398526342404963 3.20316031457247 3 1 -4
602 1 6.955910868481752 7.142096431198481 3.2855575384291256 1 -1 1
107 1 5.805475548063055 7.173181245651075 1.860469261430115 2 -5 3
743 1 7.984825755940054 7.839908361874629 1.5590674629113142 3 -4 1
453 1 6.822571220804774 8.061162900234667 2.790518051945107 -1 2 -4
380 1 8.105245451931362 7.2672716454478525 2.501505657558371 -1 2 3
50 1 8.90057081670321 8.1452333705763 1.6629793850334644 1 0 -1
262 1 8.943485816059717 6.956291451588661 1.907579150482869 3 -2 0
326 1 9.815111163179047 7.539942268583568 2.2020419789755428 -1 7 -2
563 1 8.356590007292912 8.366987560823382 2.8164368141866367 -3 3 -1
283 1 7.915702722002729 9.634166527430892 0.10938018092203143 1 0 -2
324 1 5.337039065640718 9.250499306285116 2.600601498726126 0 -1 0
513 1 6.418292599236482 8.916536216058423 2.053550612031326 0 -5 0
858 1 9.401728686435563 9.181320425144898 0.33119176567073466 0 -3 1
48 1 7.090028341238984 8.951935429893098 3.5794531576847217 -3 3 -2
551 1 6.8027049838542855 9.71978372477328 2.181129224474091 -6 0 -3
335 1 9.036887610609561 5.36541726354611 0.3646483112880719 0 5 -1
286 1 9.079752796490643 9.075368915474725 2.0320618278328184 -5 0 2
781 1 7.4954046461287165 8.77275026689173 2.672583980085288 -6 -1 -1
678 1 6.51711837577203 5.247082886407145 3.379352640848991 3 1 -1
34 1 5.836650492868011 10.061269989261506 1.6254361346860544 1 0 -3
319 1 9.896127297251029 9.184827850623678 3.5924014258925996 3 0 1
540 1 7.639399881405641 6.524326342335247 4.260980359814958 2 3 -5
153 1 9.17756428857415 5.205489408663095 4.573698584560903 1 -4 -3
425 1 7.60064976418319 5.303590665273944 3.7166351403362277 -1 4 -2
130 1 6.128747761167637 6.089135934021993 4.196678112876272 0 -3 0
183 1 9.212927006442532 6.591790616478619 0.32642121924148915 -1 0 1
86 1 8.202849762481877 5.6841377696169175 4.442266434145639 -3 -1 0
5 1 9.199501818222666 5.110389341426603 2.7120103220137564 0 1 2
484 1 9.406462841471628 6.474876308983989 4.6986972076557825 -2 2 1
742 1 5.3180406087192535 6.213704358566466 5.0300752060928025 2 2 1
28 1 5.815215882227461 8.020384403531562 4.410211957762489 2 -2 1
356 1 6.9041610865665195 8.170571523807471 4.981464741091817 2 5 0
848 1 5.459108470896214 6.901352093289438 3.9929617704314526 -1 5 5
431 1 6.032166302419823 7.495523226298466 3.088538087571149 5 -3 -2
18 1 7.352245871227975 5.309038240110372 2.713213959126089 -4 1 -4
587 1 7.669210605302989 7.813164556795669 3.3752974715158355 3 0 3
54 1 6.752900731756633 6.886174968406767 4.714605285252061 2 4 -4
535 1 6.718333616760802 7.854730956138442 3.9598861296973507 4 -1 -5
341 1 5.569902003125412 5.430155580490713 2.7943013716451515 0 -2 0
219 1 7.721647598767422 7.421046019288667 4.740566456143479 -1 -2 1
59 1 8.99201419030809 7.287131468480831 3.292919089367159 1 5 -3
82 1 8.413775242827898 5.185376737992662 1.6728740065239263 -5 1 1
170 1 9.651076650897403 7.707953419606507 3.952015679939965 1 3 1
714 1 8.553156555465373 7.837033888784364 4.322635380058114 -3 -1 0
323 1 5.755646427632669 9.601170181149694 4.0660424931309365 -3 3 1
226 1 9.249135650676717 8.729800275276235 3.037104515874268 0 -3 -6
722 1 6.080844425295404 9.77103329320381 2.927890390190329 -2 -2 -2
519 1 8.839552080523125 9.864747700804982 3.713909916315653 -7 -4 0
329 1 6.700896151486691 9.92326316999656 3.707451721802379 4 -1 -1
536 1 7.751653432960064 8.490024917986387 4.487187947670916 -2 5 -2
485 1 7.048803551664764 9.721851367324142 4.595118132756997 -3 3 4
206 1 8.65206418492611 8.708461849139987 3.8838128493546007 2 0 -3
571 1 8.235561607981346 9.616886745342258 2.15065034746625 -2 -1 4
254 1 6.222252535051462 6.28979865129372 0.3390073408454557 0 5 3
617 1 8.560717123097302 8.648075187212768 4.963265140006987 0 -1 -1
228 1 9.508984866667825 9.911676457137359 2.3404416512284643 4 -1 7
581 1 5.187895347136007 8.817134244562649 4.36284317141282 -4 1 -4
522 1 5.037551473335757 8.7662921975034 0.7819788868296262 6 3 1
294 1 10.071355044625628 8.55980110064262 2.028035168184967 1 -1 -1
677 1 5.546019600262625 7.182256928417192 8.705384018071038 -2 -3 2
332 1 9.939092804274328 8.593147740428558 5.93398449559192 0 2 3
295 1 6.456873112447814 9.157415059525702 5.20302765832148 -2 2 -4
252 1 7.702867324825832 6.540785107161005 5.2521051348219885 -2 -2 -2
357 1 7.455701442461437 5.962981367430827 6.13799242035814 -3 1 0
96 1 8.15586061098639 6.716991068503023 6.191108908578201 -1 -2 1
586 1 8.320273674943653 5.2891321080209215 5.398459071286194 -5 -3 -3
159 1 9.622239613180453 5.8184946315132775 5.983713531622035 0 6 2
692 1 8.56792450855908 5.147782320095901 7.793767203125042 2 3 1
493 1 8.455092985868632 5.745711495409038 6.681913630789628 -1 5 8
575 1 5.931627170198928 6.105907247979514 5.830924376864789 4 4 -1
119 1 5.8851180819548015 7.534447602123529 6.446397144380337 -4 -1 -1
441 1 5.811362817972653 7.28454308399084 5.3242601288780556 0 -1 0
675 1 6.710520909553811 7.310084710428553 5.59215280835748 1 3 -4
382 1 8.122052449767711 8.023693912543704 5.675158897231039 2 0 2
72 1 7.432307909288662 7.377753028847964 6.479755569404717 0 5 3
707 1 7.493013175917027 8.856711966647387 5.518157589237448 1 -2 1
464 1 9.406381862699504 6.854998129728252 5.886042984097221 -4 -1 -5
199 1 9.335671755567542 7.841098816845579 5.954213447815885 -2 -1 1
852 1 8.553282735209741 7.498767749648267 6.60837465068717 7 0 -4
834 1 5.211630043093196 5.504788941948606 6.636828990414819 4 0 -2
451 1 6.169748697816528 8.19091485552729 5.6350330614580555 -2 0 2
301 1 5.5372935946939545 9.121597940666136 5.912451409279281 0 1 2
284 1 6.317429492868312 9.29681261535802 6.610836610534135 -1 0 2
355 1 8.240165627782257 9.392140465965133 5.764952850704204 1 -2 2
596 1 9.563065672624687 5.660740735891557 9.028239493259305 -4 4 -1
745 1 7.60831623383227 9.245417429395962 8.813360045266297 2 -2 0
193 1 9.689213049781607 9.638647327324565 5.971925165261001 -2 -2 1
821 1 9.076563518365301 9.363686176183489 6.755704002403604 3 -4 4
318 1 5.571839826134211 9.755151830198361 7.561534313527932 -1 -1 6
606 1 9.91571852450645 8.492528073267748 9.795702651554388 -4 2 -2
682 1 5.2072240443180515 7.618649383218194 7.301100631165768 4 1 -2
701 1 6.2630268130690885 5.9989641594422185 7.010491368848364 0 1 -3
695 1 5.791720232939736 5.12846042218997 7.587031227520692 2 -1 -4
233 1 5.6926382592576115 6.798744483616117 7.60556151199953 0 3 -5
167 1 7.472390175637757 5.559690452049736 7.101278047959531 -2 -2 -2
672 1 8.16687092753405 6.495941798167692 7.321057472308469 -1 0 0
37 1 7.133256727142756 6.522098418053141 7.3828418746395545 0 -5 -1
244 1 7.666367243053917 5.646772166093346 8.126605364910029 -5 -2 0
194 1 9.383022103550104 5.2920168073256475 6.9632822424767005 -1 -1 -2
531 1 9.322466151453868 7.025456553265607 7.847664950355167 -3 3 -1
680 1 8.791572228234367 6.219449482005209 8.555598314702257 1 8 0
278 1 9.192188376387774 6.375549222484383 6.709595858451268 5 4 -3
625 1 5.623261556098665 9.775920451760566 5.097779986877139 1 0 -1
480 1 6.468617788179225 7.812905998003237 7.221427255158872 -8 1 -2
780 1 6.816277891378855 6.6190744138738005 6.371065265427708 -2 0 0
169 1 7.112444686432143 8.366443761923012 8.491968847552258 4 -1 -1
222 1 7.311873788015006 7.389217746292858 7.686970676978451 3 -4 1
856 1 7.8252394735531725 8.180401886953703 7.44063509104179 -1 1 1
725 1 8.926355263348382 8.323226373356817 7.235548415747817 3 4 1
650 1 8.468791552252506 7.427709385396694 7.587418372840532 1 3 -6
708 1 8.233070164806914 8.402640705436655 8.564204182484884 4 -1 0
90 1 9.858112965537957 8.264360254879735 7.6760930801368685 1 -6 2
740 1 9.688688564023026 7.3929652294861965 6.9033483167201215 0 -2 -1
562 1 7.283873334838919 5.109495791899598 5.714367861629391 -3 3 1
44 1 5.724242366877074 8.382048291556371 6.9231770751543396 3 -4 -2
857 1 7.018324338751306 8.736721472322222 7.186713364303569 1 -1 1
392 1 6.982418339649746 8.157359462317554 6.189155517063188 1 -2 0
308 1 5.535345228583875 6.558800101500205 6.585668912716165 2 2 7
769 1 7.452417274238711 9.499225072738321 6.601479786678636 -1 -3 3
434 1 7.843232124227791 9.374855232092578 7.610893614360792 1 1 -5
756 1 8.921387102883507 9.25639347874544 8.468689586773081 1 1 2
220 1 8.151409280790714 8.723648957871994 6.560154456066253 1 2 3
311 1 9.727046102384103 7.74156953794037 9.023609282801447 7 2 2
667 1 6.8883081944144475 9.841366125896133 9.82743637517804 3 4 -5
53 1 9.796626042095333 9.555558774067178 7.663237645278012 2 0 1
719 1 8.615030717615381 9.384569485668656 9.431421937916284 0 2 -4
266 1 5.978304486303707 5.317104863052037 8.788667043056854 1 1 4
661 1 5.538976816822369 5.499894155115944 9.74115832344757 3 -2 -2
291 1 5.905774177664717 6.534348323707108 9.370414139176537 -5 -2 0
212 1 6.644949503939858 5.2760403721120905 9.737588672773573 -3 0 0
296 1 7.765581300351258 6.627291101101249 8.34858908777086 6 2 -2
506 1 6.2698535749863735 6.079537676771809 8.05331959709457 3 -1 2
600 1 7.6485500981179095 6.481128692459121 9.489504682536419 1 -2 2
229 1 6.73472357971631 6.203200767534683 8.87034719770832 5 0 -4
754 1 9.70286614082587 9.404924803369594 9.33319131830276 4 -3 -2
415 1 7.390952995125248 9.906753062100123 5.603157372335468 -1 0 3
330 1 9.34906345070575 5.861192440639587 7.7943442704737 5 -3 -5
837 1 8.658529999334332 5.8427114970960385 9.60601487413207 -2 3 -2
325 1 9.734779048647617 6.683603417472325 8.846114477088731 -2 0 -1
697 1 9.969142722742777 6.303242588609078 9.848783786807779 -4 2 -1
410 1 5.223981882980379 8.12722115500934 5.531881248764462 -1 5 4
312 1 5.4272819828042485 8.009626577464 9.676623590663612 -2 3 2
578 1 5.289664886125881 6.963616010006831 10.061905064869809 -1 -2 -2
290 1 6.389444118718677 7.696396685084772 9.153745818453634 4 2 -1
150 1 7.555427604081115 7.528625072591389 8.877391268147113 3 0 -1
791 1 6.470904047385415 7.117397361443105 8.169418622808017 2 -1 2
327 1 6.786211767532409 7.071936655552211 9.79921439218577 3 4 -2
798 1 8.952535802974575 8.401228680893816 9.351313577027746 4 -1 0
300 1 9.075500111363947 7.883245036179994 8.316561326702422 2 -3 -3
548 1 8.696717693969743 7.260724659644128 5.255429685674356 0 3 4
160 1 7.609758649200297 8.080187788897891 9.742266184078968 1 -3 -2
539 1 8.628478385491679 6.936729020111579 9.269764432078246 1 3 1
594 1 6.735531621813892 5.768594202882221 5.229354988889378 -3 -2 -2
653 1 6.709344664241325 8.617905551970113 9.361722566538745 3 -1 -3
298 1 6.360094158698441 9.014574704166396 7.9377966302971075 -2 -1 2
399 1 9.92249244601926 8.609183414498382 8.643907765694687 -4 -2 1
21 1 5.894479045605814 8.14152200935749 8.130128244753198 -1 -3 2
51 1 5.722201932444618 9.046835873625998 8.738329304897682 -4 -2 3
799 1 5.351634466959137 9.887842039046836 6.4157914634854425 -1 0 -1
553 1 8.614192530060103 5.270314963005641 8.787852182541789 6 6 0
377 1 6.521436719951813 5.25008268343487 6.4697568173840745 -4 -8 -1
775 1 9.800488254384195 7.446917310857806 5.082658916042788 5 -3 -5
860 1 6.675801505952491 9.644153911052017 8.847838178980089 -3 1 1
643 1 7.666701768582127 5.488797337297506 9.318050214887654 -1 2 1
499 1 6.351164939834753 10.035209794227441 5.837638891204118 1 1 0
640 1 9.968763747002088 5.522784805880373 5.060862696981269 4 -4 -3

Velocities

151 -0.9812772836284691 -2.5341051252874456 2.5416904612455515
256 -0.7901723935980084 -2.5789594601751076 -0.4683684846539222
566 1.293516943664145 0.1765243255059926 2.136293900747898
649 -0.09565196649401689 0.13984986834134935 1.4256115712817576
733 -0.6972909464763462 -0.4270262164805628 1.099616371415889
660 -0.9623247920839284 -0.3364889900296978 -0.9115396118340058
412 -0.8476178182982886 -1.028021446071937 0.2518487224834111
270 -0.32193920417064664 -1.7559611930339412 -0.5182442053659613
443 -0.9645372194088971 -2.0789196548895887 4.186508324508198
521 1.329806774992811 -1.430564104637388 2.6148986181458516
537 -0.8975829825999345 -0.4222571136763793 -2.0598555911060505
100 0.27687556060289426 -1.3419544957602465 -1.8989701415059363
352 -1.7315975367937961 -0.42021054341243896 -0.774607923753445
728 0.947021752739262 -3.0265998240848044 -0.5393148428883272
387 0.2971215188005885 -0.10642458839471175 -0.6823005366535513
171 -1.800122637545068 1.8193372036516653 0.6255884247090068
394 -0.1312849316997264 1.0491913686375038 -2.2546811960319917
724 -2.2292836125354136 0.7161024980820764 1.1229074951522686
558 -0.8237737171139702 -0.18308436799878863 0.21845337130729195
696 0.21953390045646717 1.8760247411391744 -0.695237380534584
88 -1.46810526807328 1.811845898915198 0.07925676143703086
192 3.3631634240629027 1.1640152147991256 -0.9459813144727413
859 0.835542789542343 0.9654115262755278 2.2629748848439766
627 1.5658785537259754 2.133053205537598 0.5802788441828577
761 0.9487217910527427 -0.7971115552069513 -1.0854067617035053
610 1.6255647548239727 -0.5127276599636815 1.6314171077223485
489 -1.1828135363556171 -0.47102687481537914 1.849251483979083
240 0.05148243244283915 0.2938005789885309 -1.0223853972087282
15 -0.7167950949769357 -1.3996730482465722 1.0587199796865332
66 -0.5305098615070328 -1.9338605396210216 0.7507730385185758
25 0.06243518759652359 0.06130589494679855 -0.11502130007833558
131 1.4422456166996642 -0.9957342293477625 0.9473999291414236
175 -0.43377681713980326 -1.141156257586223 1.1009313251561768
242 1.3653849989434996 -0.6831370497324093 1.4378974158272646
73 -0.3057182336980278 0.5366494407690849 -0.6494289996375696
129 -0.6491792824064733 -2.324775973779075 1.1655349890750561
108 1.5565431197727055 1.732231840307057 -0.07076498196773165
595 0.4837625141041058 -0.2539471917330773 1.6388012000267966
445 -1.7376851574148957 -0.21086922019593102 -1.1412630169347873
863 -2.932043437158085 -2.2022502201677745 0.23481032427109547
842 -1.1513693053273415 1.9157266584205979 2.007975135374369
545 0.49256925336047447 -0.7008168675192571 0.9000073631059872
547 -1.3481639861146757 -0.4569815408979791 -0.12032445451129488
269 -0.16242634083075566 -0.6057190873186689 0.17663409201991634
68 -0.021460707408720674 1.2612011549669642 1.1433338873153243
615 -0.4950194485220014 0.8659909815346486 -0.06593703919693979
786 -1.2987652708512818 -0.3205139414387052 1.7918284044279638
29 -0.3104682185850957 0.43172809721566147 3.4945372833617174
635 -1.5904710761416954 -0.7059172399835364 -1.8626595986370682
84 -2.2897083386514225 -2.1886684734401607 0.13425875503605061
336 0.2441013154729897 0.8323324783725361 1.4714502640268106
363 -0.23820564295059027 0.5076947913034362 1.1795044609303826
797 -0.8094679661224686 -2.3778083793286067 1.575818777617372
503 -1.7365332277552474 0.9496757602515618 0.12741027325022308
784 -2.165347619997121 1.7630850129747804 -1.8533796743369038
273 -1.4180490731334308 1.4267085455781716 -0.8218246304689142
55 -0.27462357875172644 1.9268460902220643 1.1061124948466412
796 -1.6738180186323177 0.2491480636492738 0.32917710791906263
502 -1.5776834007542373 0.804464329314293 0.3560107207315686
143 2.9123060123453746 -0.7146175542425047 -1.2209376920024577
306 -2.5301708745547575 0.7126201547740604 -0.21300097035275128
162 -2.3527084477299764 -2.6464765709113487 0.4163317753638954
828 2.428111860346 -1.8490592121381455 1.2107525747398893
785 -1.3619311451151437 0.2514327415364004 0.5779649285074091
177 1.9828624078426547 -0.5144138513460275 1.0197401837563362
690 1.2115987147655514 -0.5470063680328584 0.7375130199360764
421 1.116160416804501 1.898982947797861 0.3286637312410397
715 -0.271455836789739 3.4474491511509253 -2.015887971130192
814 1.4025348684495043 0.4026233055542367 2.190717497951925
182 1.2811631684046536 -0.20690755296452976 1.923907866818604
147 1.389760520912075 -0.09564510686445095 1.9284947171769018
838 -0.9068520940225776 0.2312717600482078 2.552957206048182
659 -0.5493450266448496 1.3964586774191796 -1.718294626742829
241 -1.321202843491266 -0.9018726150614065 -0.032249079947559475
647 -0.3379717813822109 0.9378263166471451 -0.48388426904230497
580 1.1705828002127856 0.04117691281220697 -0.7396704294418097
465 1.6576331480676323 -0.12542846724575937 0.717134154246456
806 0.16989275224747993 0.4081010783030443 1.6908223168722598
389 0.14468301820044388 -1.7934654360677715 -1.6233957445207914
648 -0.7249224134288741 1.1594721833116994 -0.6187121545454255
590 -0.33280423841009843 -0.8420225058938813 -0.0927890929023261
455 2.4340634941189108 0.18824386579684432 0.14954198360873053
370 -2.8673200066615654 -2.066394701567741 -1.8174713364841266
83 -0.7280036213207568 -2.027119269096701 -0.7903351301490437
186 0.4884178578196736 -0.6137749708160848 -2.5700029040012415
759 -2.2672018868278316 1.6243840678714854 -0.24956764330575745
267 0.36775535295719974 -0.72841596190566 2.0442037260661987
405 -0.14335491770188558 0.08209374161610988 0.7638568684044857
494 -0.7756459660440902 2.1631724811716526 -0.6943082763261987
424 1.2184996657091454 1.2495056844628845 -1.0510002855314282
148 -0.35069581616529455 -0.05642503286741465 -0.5475876735403375
509 1.10272446988104 0.5342694463826696 0.6455266315902267
810 2.5650178233155483 1.9832990140902356 -0.643932334167702
429 0.20816190874995222 0.9854087555637636 1.3626805382993403
62 -0.08267291275007986 2.503408583889292 2.7320764485032294
49 -0.060393698401638246 -1.368618633212571 1.12094511911026
669 -0.14137373156801747 1.4727983568801288 -2.119910757886585
589 -0.19880079239863757 0.6843309116795502 -1.4670335459161017
94 -0.21606443213196608 0.432185221669833 -0.052760446500993374
820 0.5622443480764078 -0.8246027097802613 1.097446028244321
141 0.3587640132563589 -0.9843534942741913 -0.21968846300060665
307 -0.2148919849064026 -0.5396583934330813 1.8614149795195178
7 2.572436573552043 0.35513693343518105 -1.6505017065128162
577 -2.5964218504561556 0.2306414428583795 1.264600265441895
721 -0.7907367768143155 0.901807578188505 2.794821007122439
122 1.0238867558758953 0.1334373599755511 0.8038924100692364
91 0.7720437657449559 -1.6014342881965056 -1.3078765118930624
460 1.1321110483047436 0.610789902547683 -0.851585285608236
694 -0.6694939125499917 0.1601204237495928 -1.9566156906368155
788 1.0076149932023104 -0.9692059325362463 0.10198983150812023
57 -1.83675266353843 2.0603355825946887 -0.39285635229093085
767 -0.155930467869957 0.7784521567481167 -2.1224340546277505
89 2.539262189790538 1.869430318504778 -0.749135195278487
688 -0.11281103455684621 -0.2021169569297782 0.6600597723016667
591 1.7553366559534902 -1.953395600857844 0.750471006938546
819 -2.1633819307736486 1.0834481957455702 0.06150824351691992
585 0.0998814477493685 -1.895556826877529 -0.026056992896553412
709 0.5250830167125496 0.994786128765401 -2.0100471104959805
771 -0.6968715640610336 0.9805988236109195 0.5446788642110001
686 1.7631546519385108 -1.3950865430114292 -1.1716617156154008
448 -1.4306889321414464 -0.3604649022925841 2.084208389248953
236 -1.3801113053741458 0.7063399422742198 0.4072765644358148
446 0.2454142429861155 1.68550456247721 -0.037944493149926914
317 -0.9476430044557491 -0.7228966594921173 -0.3894316911934244
483 -0.3033807502348557 1.631540163194227 0.23802249615918797
149 -0.3309041990815415 -0.9229601418428521 0.16242786406096854
253 1.6370782026408275 0.9172425079446747 -0.33196184153255487
359 -0.6425521244450559 -0.8755601026641725 2.5166036869521395
561 -0.8452841529321699 -0.6454158099574233 1.1218448469715492
467 1.9723402448819347 1.1864732290069326 0.6089720851718696
490 -1.3083500426878307 0.09371742844034864 0.1473289339033417
375 -1.9323787365438068 0.6090733855745069 0.17833370441773078
358 -2.3092613727187854 -0.3629654426501041 0.7512714074246265
582 -2.875234554964634 -0.9225867481392764 1.7516763416328587
830 -1.9655481081364552 -1.643121757944457 0.9539499936465442
64 2.0829711787729663 -3.478965414070723 -1.1761481913917646
557 -1.3198001765991194 0.48253778209603115 3.0880110228891473
218 0.06921012360202901 0.1521377249543412 -1.80289122158024
157 1.0363007529761208 0.5350818072933048 -0.8304462848497328
488 1.0679085955551015 0.7693029282681755 -2.2611687755570196
338 0.40407956439515547 2.026192702113619 -0.5839558591296334
385 0.7554838536454525 0.18958110785337856 2.651871284240415
168 3.0416489558456514 -0.506404529402466 -3.011888533422922
164 0.3287464925802128 0.6078351465369255 -0.3478416908727441
705 -2.94343754461214 -2.2370439124668042 -2.272246855567011
476 -0.21761333947670244 -0.9045879507964785 -1.5896924626803814
670 0.8876529019239964 -2.5068061831208466 0.6944906995514895
432 1.1626807015748464 -0.6324885179620328 0.6916115943701561
402 3.1348844187326685 -1.1915627439000251 -1.8076780326940374
800 -3.0066975130212565 -2.036067519434394 0.9620390212925678
736 0.29200163395209416 -1.3763373377138304 -0.7624010806246596
279 1.4504045881686989 1.1731072453466682 -1.0192964079820943
599 -0.5768480214755548 1.7566510648633387 -0.3269506582682295
80 0.8323371428863444 1.949886776504776 -1.3224098387475618
243 -0.11530909003760242 0.55797427916674 -1.12224930391395
360 -2.2369301842797626 1.102422144920843 1.8851656648792312
276 0.17687472461693382 -0.9312058942629152 -0.41338230736285275
592 1.0557681091821025 0.5028119764575804 -1.3250635334739909
772 1.760617316562115 -1.4497407177957382 -0.17029511371086944
479 0.32181687603306736 1.1403458931995532 -0.39938287599544187
369 -0.4911458910975033 -0.12556452891266837 0.7861117516715758
792 0.16509388281917756 1.1620899750567069 0.5501010586882219
351 -1.167219699115591 -0.7941036256578526 1.0128554607708378
383 1.8300540505015352 0.21696715430308827 -0.4385414831273743
79 -0.7380164069956942 -0.2360984556981305 -1.687008988007403
75 0.7976995931575072 0.0030210103320472757 1.4005894243964483
808 1.0652450745309447 -1.0177150221707594 1.9587516731085632
720 3.8221648679047844 -0.6334355361011113 -0.4150121854112074
552 0.700412798541728 -1.5003965554848244 0.3763138797617092
315 0.8763145170996683 0.0606702324518019 0.47360750591467493
127 -0.7101293473674556 -0.8154235162069937 -0.5803760770294271
471 -0.5612078751103833 -0.27067452823855376 -2.6489537708494573
533 -0.2629825830337712 -0.4689708587752689 1.44636324722017
454 0.13923407812807023 0.10870600349073692 -0.3437315335819853
752 -0.6740998227940632 0.4694747964767811 0.912981793594804
824 0.31334518920748333 -0.7748731786693245 -1.2422610108042413
126 -0.729695046454705 0.6043496861576165 1.3092653963204095
313 -0.4267268040202391 -0.5113725943359687 -0.574056183242401
449 0.7029810129930947 -2.8319241424108057 1.1185597142758859
209 1.638711904686483 -2.8200038121393387 0.42520434416420133
376 -0.36444362956277093 -0.37359000498924066 1.2415959096126488
439 -1.2070021616991522 -0.9797784368563296 1.532180880386881
202 -0.37986167167034685 1.455699033929606 0.8066183425096417
849 -1.2887065197476981 -1.7940825059790142 1.3828273352993334
730 -1.194132106231705 0.8464798563738607 0.4820833620188074
400 1.7622078538527441 -2.7802289998619028 0.06925695768132714
861 -0.7816144889019139 0.6207825056252557 0.35697380158846054
109 0.5723506425255601 1.6177135086553422 2.0703842748222887
293 -0.26945609601632525 -0.3007107125341399 -0.10028720597583447
41 0.15439784810599622 1.814806564882156 -0.2557606732403526
144 -0.2856337870437831 -1.3716092368036708 0.07484205667933984
658 0.13694010471969986 -0.2083862280293461 -0.5255281475536512
406 -2.4069019918381875 -0.5167323118677674 -0.3915127479093276
652 -2.5670904087329105 -1.1030083868700717 0.24685602481877222
438 1.4702304637699906 0.1689568053855491 0.8996582891874705
630 1.5030900801681206 -1.3292362966156512 -1.3259945483039826
372 -2.179619756773301 2.056934969623635 -2.5807551338120165
637 -0.2537450708427957 0.21849461931315306 1.4101588220438201
574 1.9094674519485142 1.7619323698795608 2.1784827699368807
39 -3.3567042056832377 0.19213583377929055 1.0654379916913668
766 0.5034774211662975 -0.9188005683683393 1.247176771901891
656 -0.2997505910510224 0.5459949886938295 1.5658641611158168
408 2.8089918605662985 -2.1619243241967268 -0.6774466500300843
593 -0.32587379820084317 -0.8716765616077152 0.18542207377967018
173 0.011597673979420854 1.7394185512352474 1.296922230059903
803 -1.958803052513846 0.03068317629841814 0.7212291439442581
620 -0.42641865006673396 0.44533044554658124 -0.9313109877744877
623 1.076939555430922 1.5839243170345227 0.3949395682517761
727 -0.7336300337400481 -0.4831002208397676 1.1724427818738066
687 1.5874480891113587 1.3531513736235128 -1.734751938052816
626 0.42852304787018847 0.8134284855251511 -1.327542457243311
200 -0.4436018324863495 0.8635288974874444 -0.9729803188957966
268 1.3573209148179866 1.1246896060493676 -0.18107143291949934
397 -1.2260952986085194 0.2911923486274821 -0.8488384291932246
214 1.9342473801372446 -0.27068196324330623 2.3730715791555568
508 -1.6025203448065044 2.404157892270196 -1.6371799532460878
804 0.1570263516550028 1.2536310453086 0.9929784983298549
569 -1.0301245539542603 -0.6236200502553709 -1.866337722259573
779 1.361578294611026 -1.9944940742992179 -0.10560110471811711
353 0.30900228788921 -0.5633344347956044 -1.182088058012319
565 -0.2610437581635187 -0.724578699744118 -0.9487639907567282
794 -2.6965391695283727 -0.807785865842166 0.7213604243276749
174 -1.2280215276945445 1.6349913440753725 -0.10952754897496489
739 1.3661267509433281 -1.455205303527509 -3.339232012162535
138 0.36490354697504745 -1.3622949040013919 0.9617378667516377
265 0.4450761909215649 -1.1156085861464742 -0.25521058930986046
38 0.2048677082547337 2.5938000312690828 -1.7896404970289077
747 -0.7742805906712157 -0.43289487291157874 -2.3004999633701577
463 -2.4186684707853554 1.36358106949044 -0.03743758992022665
854 2.3410702531797902 1.5153591310011962 -1.9353526248094812
245 -1.6640322672925238 -0.41910359247264267 1.6762980952180027
417 2.6212880246757266 1.3022282901153897 1.372509889433318
340 0.4503191473131829 -0.48652675974918885 -0.6800779249705927
105 1.79901345974444 1.4887224217860784 2.525072632988013
584 1.8746800562865653 -1.7867866025372197 0.7426233058589438
65 -0.3132481190789201 0.43898901521948036 0.6396313880931254
844 -1.3856244145587002 -0.4927403567977054 -0.6951370738059526
532 1.117855502988556 2.395784291451385 -2.448965860754452
554 0.23781628167005942 0.2545584649641262 1.8440812803312714
140 0.9996614838273213 1.378722467029351 -0.6531410434014477
534 1.1436144603262743 -1.1717790169233055 0.3508204064994852
87 1.6408541597602424 -0.9824899589689374 -1.0723805049361952
384 0.4852839527119089 -1.8199053287717843 -0.6879026234296595
180 3.058565438894105 -0.6827380943967364 1.8046155446574077
685 -0.0032620959645879265 1.5518901846946833 -0.3096652161193094
280 2.2392845214964088 -1.3253242278935315 1.7568816840158838
114 -2.4649329894444083 -0.8579571657243272 0.7515054063779741
511 -1.405026907896439 -1.132552246856853 -0.38677073836290915
223 -0.8251375735683932 1.4309609713951483 -1.2258173712985128
31 -2.2710137756897235 2.0491878682617815 -1.5077685379152972
110 -0.6821977593162993 2.225093631738632 1.6520532651124147
846 1.3485963650629496 2.6174652010808312 0.06984519990134559
272 -0.9684699349983025 0.619963965465894 -0.7835494940547872
436 0.9500348106226876 -0.9377417777892199 2.464809873100513
211 -1.2545214755759153 1.713118898443394 1.2303109561698649
850 0.2076689176022032 2.5532321264284477 1.4668631148691595
546 -1.7631204518708263 3.184258653835041 -0.731845093553971
156 -0.7358206005527022 -0.12464466841842259 1.0229929702931346
706 -0.3856156782127527 -1.759879823021371 0.3144999832511736
636 0.031199687971427602 -0.8405228266067557 0.14163859606201318
221 2.228646447480686 -0.41371546367297307 2.213957266747212
663 1.4501948979896813 0.6127555925229743 -0.7533118494892665
234 -0.8383096142328054 0.5273763859069497 -0.40659567758179854
45 0.747976576543429 0.2951162971137068 -1.1283561384147192
662 -0.1392690433425835 1.3599113995679928 -2.3103273333166885
419 -2.1961998132958143 1.0670124664700764 0.016157554731002933
809 2.4290712222073854 0.2858303274871035 0.14241999242392436
190 0.27999403895911895 -1.7760990302445439 -1.107331666457269
231 -1.2801622089809515 -0.38983426570511737 -0.22993531788811514
379 0.6187005226538402 -3.4517476844554618 1.2458700695401812
121 1.2217652960525023 -1.6373176637409466 0.475878761991934
787 0.6921669943430854 0.27532664945074925 -0.7400756808858624
681 1.438018263628455 -1.889959583166198 1.1290723754547345
11 -0.03851921603767498 1.3277178140981412 0.4001946629481621
611 -2.735740649789111 0.2941651423176458 -0.9781420738989621
23 0.5726341513857142 0.8221859468643212 -2.612269855355373
654 0.490414559298669 0.5965433775827119 1.3164770590049284
559 -0.9896979406657012 -2.213264434523557 -0.8735774973257321
36 0.2788728964067371 -2.602134643831299 -0.04632116864186781
104 -1.442604804557776 -1.0053787607689735 -1.5003035560491393
205 0.3838374908305535 -1.098257824883312 0.8707884411872366
411 -0.4814077988638108 0.9219542801047972 -0.21755225464599273
213 1.3630869850679364 1.9713634691478683 -1.123082016362343
197 -0.12734348326346012 0.5413248044231265 1.12538315290187
619 1.400294287446912 3.9594360015875156 2.121741751126026
812 -2.2901146086725586 0.2337999196058869 0.891768263018675
208 -0.6133476505409221 -0.049941727261571436 -2.1930279222871873
347 0.2912902813360388 1.8316347714362584 -0.12042123345351845
668 -1.2782250106047601 -1.6701447748649527 1.0270304082323087
676 -0.4829179903977414 1.6957397396889184 -1.8855406761722897
322 1.7413985921585369 -0.9279370195513935 -1.0254695069033057
639 0.13179492187708958 -1.360184902867109 -0.3610789616610975
346 0.0051299986069414496 0.5264591863824001 1.232400607840199
862 -2.2249222708728325 0.21383205763745483 -0.6350977841958653
342 1.4467922079248776 0.9164204347018275 2.307332361463999
478 0.759845380780418 -0.22687614413888693 2.751402852176634
735 0.4166980053980923 -0.4755373156503252 -1.3622132754208494
420 -1.445321870567283 -0.06811945180277912 1.1738591122014035
101 -1.5092075098759863 0.5141081888892578 -2.665857016342721
216 -0.43616980159145213 1.0705532516246075 0.7000923067781489
374 0.16137027519182343 -1.6933346529912545 -0.4844668682923786
70 -1.2686520274955015 0.219164748712813 -1.9295264129023417
8 -1.079486732396008 -0.8794955529156709 1.4025229868778886
840 -2.783493358691983 1.1090979713832705 -1.4234692172654573
19 -1.0132934563373241 -0.09282969926133425 2.3697034174537612
378 -0.521224443187867 0.5843228179883689 1.4205918736612253
598 -1.3444201020981867 -1.829508874910397 -0.743301279859502
815 1.4995480214806534 -1.949793906077382 -1.5707665898428
843 0.9827110568724756 -1.132685154759762 1.3218831726231113
320 -0.8637944675769197 -3.538046694269908 -1.2087948237611987
477 -0.0027934795590482345 0.9342351783240016 0.821958347182013
712 0.46325531178868906 -0.13789494633371058 -0.35513639372345873
568 0.30089215876870923 0.4789937541035991 -1.6171183093390353
836 0.38191926121879133 -0.5361762298051191 -0.33299681843114354
457 -0.18148544084542304 -0.5034864642210022 1.6951349219441312
514 -0.0853849214333005 -1.2125431646562796 -2.291651275910256
191 1.7032160390910573 0.9823638342611367 -1.8870309709161612
486 1.720855537243549 -0.8826698256944341 -1.0463294349877894
106 0.7991579905078982 0.6184971680764576 -0.003913595040638199
81 -1.2522210243099101 1.2114950989971927 -0.7292810846125944
403 -0.27808510670192826 -1.1937406248309972 -0.6267540766848338
427 0.6573310229843966 -1.0327024488227852 0.3062276493487908
35 -0.6600938572963385 1.1899202626050247 -2.167218987270023
10 0.2681918037089324 -1.4913439976489054 -0.4411562108121117
573 -1.4738532579046506 2.6883551184974954 -0.7574033183382899
524 0.9308919370466034 1.2420285408164013 0.3077558990982046
248 1.8239622996408051 3.049058874569899 -1.7282018405214097
30 -0.23814603434797016 0.3661914203615183 2.263677013149683
2 0.939649752433125 -0.22377381754344206 -0.7630758175823514
665 1.8247485418014011 -1.3498781883360766 0.10028957719740554
829 0.834942499159285 0.8214172745950353 0.43204761772701034
773 1.6431025311562164 2.1806027837920943 -0.30754308759834614
744 -0.20638741904277172 2.27207449717562 -1.346555280683653
230 0.6591302100362639 2.0637148152573612 -1.2569876898965593
26 -1.4936158578383396 -0.4600426782856772 0.00014361153928485983
713 -1.9094814997089817 1.0430634159544419 -1.1357433420903948
339 -0.035172710514962686 0.2990774219791834 0.003320533225086917
20 -0.6743379794521124 0.25833090643397455 0.8913210968026716
507 -2.0086098996267636 -0.212131672293865 -0.7691752305766161
302 2.238565795027663 -1.0801176202708078 -0.8568680598023085
74 0.7414573130195314 -0.7460119943165675 -0.22763991302644326
334 0.6185981097729847 -0.403721511586341 3.0866611752414643
768 2.1644820147400625 0.19370298931228194 0.17017318777549267
698 -0.49561213718917596 -0.009439413216482126 0.1371160374790389
777 0.9238821968640076 1.2415450741085217 1.410350373204853
818 -1.3533779242924835 0.8967979487332709 0.8177261823261571
823 -1.6989619248733079 0.17465581075082975 0.4854156173296464
310 -0.4570538462392405 -1.557277271509956 1.2208761848054654
666 -2.683375348011662 1.8280280725677915 -2.399310075721345
123 -0.404246293218569 1.8960416552172965 3.1235603505075544
734 1.972650800286417 -0.955431836542547 -1.3536931466640634
188 0.5349525835107719 0.5081394582468871 0.1788434255806164
260 -0.44321232598577515 0.7132428075936069 -1.7582159858417352
608 -2.646587360287779 0.7895367648439598 1.8977024351798464
459 0.5294810821429133 -1.132480803363604 -0.6610767843316165
679 -0.686960059234473 0.10975910567641696 2.5857009048623496
634 0.2022760112793147 0.4291328247352611 -0.9342900905717684
470 -0.421767855068168 0.6628641081062312 -1.0656139457211633
770 0.3668500089448848 0.2866728116106276 1.1526316204223077
693 -0.4982133284043213 -1.1260749770425895 1.1967375887891116
500 1.6813011785438552 -0.3222873220787268 1.4746288793595257
826 1.7800696519023513 -2.3307279107380916 0.01606314293031665
6 0.2889312251254704 0.1783652931010639 0.7426803072539597
525 -0.9011891267349456 -0.2774682308794651 -0.3722267446299429
704 3.063999840054522 -0.3209151094044625 -0.009296385928321074
401 0.25318979413065507 0.9619841065572359 -1.0795891273713587
288 -2.9161732158470826 1.8433844588161852 -0.37259682454687565
645 -1.146686753075368 1.0179959185377687 -0.6523137450823552
413 -0.6106691731603983 -4.454771366562365 -1.1094627953900877
258 1.5188954004284325 0.24878162408689983 3.5802234458684223
835 2.0712396924179997 -2.30793341438615 -0.17121369958416932
271 -1.6156989664923347 -0.3329056166308766 -0.6331747809591405
726 -0.34377284688166393 -1.381340714366696 -2.6288718667711195
27 -0.11023311113890277 -0.8198406241699354 0.5866103269653117
741 0.5130772615791032 -0.9537068989044762 -1.1448293234422797
158 -0.20388156983913794 0.8854268787572619 1.1806229712931067
461 1.562038496679973 1.2955795701694575 0.2819697211415972
567 -1.0520264311734804 -0.5877519335648731 1.7945459978846041
629 -0.4661124047193507 0.34114322578077927 -0.8196517661449632
811 0.06254084398648409 1.7137208218299753 -1.9634198342078417
604 -2.5031284318123674 -1.7286342822201861 0.3179466191086412
154 -2.5334192895887386 -1.827146421027152 -2.9095210069718
549 1.0929614657400815 0.7367179981909915 -0.2896632605898571
71 2.1909156778749286 0.297178929155773 -0.8895763683218533
673 0.7343624907699411 1.465458401900493 1.5572282355762064
111 -1.5998549539382865 0.9360432640598565 -0.3593632184171712
201 -1.3140076579905047 0.662388492126303 0.9252835107456481
597 -0.5288104507520248 1.8651883650940835 1.6766273756430143
47 -0.3159555765935228 -1.6268869769059695 -0.3910810419064078
601 -0.33355582617479573 2.4177999699715294 1.159222137066119
528 0.013669149742098917 -2.6389878285645603 -1.705904111574794
17 0.0012374553097600906 0.3270808651343589 0.6528307727538417
61 -0.5270655048925839 1.1983166727567212 0.24046577047740636
832 -1.4591522840545876 1.3242746420957998 -0.211909105906265
529 0.27424603278180265 -0.5102502109405517 0.15155827123650856
40 0.8349375237556228 -1.6646969616354914 0.25852346382719943
407 0.5563230079739565 -0.5305281202895417 -2.8150406170706384
13 2.090124713777236 0.7867766254401639 1.4921946018544738
816 -1.1920838349882115 1.8911558515150153 -0.9206244929999401
853 -0.3861650045498443 -1.6633041650906883 1.4316680318177493
9 -1.7707462741120048 -1.9075552301590404 -0.12871226016477427
350 2.283529097220853 1.7484802618889321 1.2451981487828896
710 -1.6170536112139884 -0.8896214904381866 0.35150597656358035
807 1.2101277130000199 -0.15590030484588938 -2.609077995266869
749 0.5525826642078724 1.357465880765329 1.3640645337148716
257 -0.24356854972345426 -0.5443728094369576 -2.1076952643036733
614 0.5462741375494103 2.4399665260742824 1.6667663021740935
523 -1.3176860337268204 -0.39730139735867753 -1.1877755228911289
633 -0.5150642150410836 1.2292423312963872 1.6126816666328516
354 1.1477467792649503 0.3732593848412292 1.7031931616310572
456 -2.416371430808414 -1.1906320902073042 -1.0674488836753377
543 0.5483341196724436 -0.43956693023058574 1.4813882359277528
331 -1.4026049707377355 1.7033013269360149 -0.7776151647983475
259 0.4122057936533924 1.0066644122880677 -1.6624874351276713
560 0.5774293010803946 -0.6620729096620884 -1.0571887821747328
491 1.481209301000139 1.4543754245735268 0.9529164622344009
825 -0.13591153179317217 -1.8843535766361645 -0.18581552965167544
468 -3.054677606398182 0.5875312632598337 -1.525920817650803
496 -0.616893288403571 2.241209527474708 0.5806624808891846
497 -1.044762886768636 -2.316857940520229 -2.172975414550522
371 1.92137888867212 -1.626793560040266 0.28045845493304755
416 -1.6071275107129623 1.5738926412206682 -2.0045254590700172
414 0.39877810619233295 1.0390249625346935 -1.2190098714350333
239 -0.7132231204653009 -0.7938347103235398 -2.9504698313552575
390 2.455501294996614 1.0229094678145088 -0.026483368809723042
309 -0.2046101846592641 -0.07160094328680527 -1.5934350232275116
440 -0.6883858585114354 1.285416406822718 -0.14898191711874353
137 -1.4471772167317765 -1.4358896956593301 0.13838423491516136
822 -0.02123793218880129 0.1947670245857183 -2.940241626584754
263 3.0215018885424585 -0.06932876360064387 0.5515099617933655
472 -0.7381013196553315 -3.0140364176032346 -0.2740385553191056
115 1.5582841013939908 2.1467597234961096 1.1727208154722721
349 0.6133126598767803 1.9826218777135312 -0.6365511939988513
782 -1.9369339351002728 0.7680602176433841 -1.7457178133287878
78 0.10882166035604052 -0.6603994303968492 -0.10978563383550141
203 -1.1926560373826989 0.6953229806025925 -2.3435356541182273
117 2.711073759714968 -1.1869114352865893 -1.71933019490179
526 1.258878706171007 -1.1983915876417504 1.8592116269047738
362 1.1496272533635383 -0.21308140272398696 0.4195440594407888
530 -0.6018860569667606 -0.25680719388028034 0.4044738950295628
255 1.0739897449153255 0.21715123573275227 0.3324145324749771
120 0.645475417139959 1.4799819694692418 0.6585870655782379
833 -0.24363526327475787 -1.627734850308191 -0.2852353225090045
711 1.9627168698511073 0.3528646551117438 -0.7640891731765294
184 0.049595337172029096 1.4189616980196602 0.778255956408297
793 -1.718804827702063 1.569031693984117 1.6498367637073614
299 1.414170477424796 -0.8342764280726516 -0.42248539326557794
60 0.7087059937188813 0.9463300671126763 1.2695457208936158
98 -0.6413595887547793 -0.06632429488677194 0.03258664337986201
337 2.6630042977081847 -0.7014075232633226 2.028328619773439
703 -1.290799227596502 -1.2141188154292217 -2.035080706322514
801 1.0141560917017054 0.586327183934098 -0.31645284271897056
495 0.7389280485897144 0.03151026597969384 -0.4567521791762902
172 0.9971972979197501 -0.044741761978311666 0.8085023175659449
555 -0.4107760766111277 2.052607283933833 -0.9948248144616809
576 0.6046422672953959 -0.7627566455491368 -0.39431031014604456
631 3.4585199811305034 1.9046947048799645 -2.2681625710808606
142 -1.5274582179688365 0.02613507663926311 1.6304052266376006
542 -0.6618698775398051 -1.675855879732827 0.2931026040418676
146 -0.8437064827163169 0.7319323363095523 0.07324477991746049
232 -0.7913954328949205 -2.5716358398855963 0.22641726129743608
343 0.4263008690236051 -0.4729583051910294 -0.8470824803527435
644 1.4231427098531437 -0.7836862847334121 1.1349077405947132
3 0.7144300073034631 -1.4315136627215814 1.7981937338524898
609 -1.245288613919444 0.4193970971354828 2.121155854374832
348 0.7241504821078458 0.4742529420270885 3.452689652242278
664 2.583291876750974 -0.007999156669577331 -0.10049709099893672
134 0.29620511743274835 -2.278392612542452 -0.3725999984501559
433 0.4228758955491087 0.6155661891229469 1.9975614497445917
227 1.2092085552050194 0.13782071157514295 -1.113701913712463
67 -1.0765187146320065 0.24896839022676537 0.4755145386863447
827 -0.05835111977269291 -1.6749644492416083 -2.148187849224192
847 -2.531278645829971 0.9733867763372193 -1.7458629415864666
505 -1.982811757996754 0.3660082094350516 0.6405178708868358
450 -1.081618078575133 -1.738093595587158 -0.1277861852321716
603 0.6121226873569773 -2.676800591606458 0.17675330524217744
235 -1.1306603608810752 0.8730142951900206 -0.07848222824236414
152 -0.8427177195459689 -1.09973499005052 -0.8530253692216666
373 -0.19936208534280087 1.6449260974641613 -0.8224952975349972
155 -0.47761617403707823 -0.21280870730484336 1.2213256976889728
388 -1.7386562326928774 -0.4573549515760418 -0.7484458322298961
24 1.647889084739109 0.6451847441345548 1.109203793755348
475 -1.1516974515906007 0.3174366468312723 -1.0431670495374572
328 1.2139038352677756 0.8247934651111459 -0.18232835102531797
139 1.2387510390590766 1.6262332128867927 -1.0617165072443655
466 1.0873848876092687 -1.958511132974889 -0.7390402042793535
185 -2.2822663025975913 -2.242715568810342 0.45786767124969086
435 -1.1509947710746795 -0.5464717553347344 -1.0805236040537733
95 0.9776359582524524 -0.07568358405434411 -1.1839460433341231
651 0.3398432462153432 -1.9016327069356804 0.38807601179267676
178 0.4144909628561532 -1.815725459349147 -0.10572860006244239
33 -2.6338744875350906 -0.30420668785523036 3.1694973409664104
92 -0.26340526950487986 -1.2650223163960546 -0.8827234761464061
1 0.007900790552467552 0.461660034552562 1.3773756617312563
395 -0.4440222894345985 1.8398150271981843 0.024351888638451717
132 -0.08327991147860205 -0.43374259212030897 1.6107075120671237
93 -1.7135356009795109 -1.392851122391783 -1.8359636941860709
367 1.3264910468550286 1.5482618079003307 -0.7540762555758621
274 -0.07539463043807541 2.871491144520018 -1.3218975631548535
746 -0.8440833606749327 1.3365620963557856 0.19502097316274444
723 0.6856060720478154 -0.47537312836220535 -0.7329892047384061
541 0.6397207952578117 0.25576562688472443 -2.805246705861496
839 0.17321933835836087 1.532120230643206 -0.0938212576433411
133 2.5660089613984685 0.009795504480006267 -0.3925536424304616
404 -1.598539483549811 -0.3679213684783443 -0.48016431938659515
125 -0.9888974595287828 1.0460315983116526 -3.3757106879815733
624 2.797628488390635 3.865550090813848 -0.8943237196655583
564 -2.179388359907359 -0.07680998017240509 2.368468962605241
16 1.6953905165903003 -1.1479429195867312 0.7052081551737942
762 1.1540687815977884 -0.9753913937400298 1.0653518507229853
612 -0.22947577267258765 -0.1456410028788045 -0.3306170057279927
510 0.6497774351467538 -0.21689589957071917 0.5492952155627504
304 0.4183374373334812 0.9383313577162075 -1.417655823838759
297 -0.13914140662982327 1.8282634191456875 -1.8492108716133409
287 0.37039095770197095 0.7558460499902026 2.4592203976831613
732 2.2327866609793334 -0.03179154156332724 -0.8601811957666687
613 -1.7731548359271418 0.14521883961244783 0.8668639273297473
264 -1.8569524399527249 0.9960599939444461 1.1492364127053178
802 -0.47545393081929266 -1.4767923148651114 1.1060798090340205
314 -1.323636071705613 -0.35887312156999507 -0.712279202409764
215 -1.873191163631615 -0.19284065661293817 2.2557116501906638
261 -0.2980665247109344 -0.4690181828156838 0.9055420506062694
43 0.19972673148400394 -0.6788525042884782 1.1138246159769418
813 0.4861706757694843 -2.6325594979373808 1.2849967418933872
204 0.6328834417599658 0.3144710770407532 -2.4020075870054196
757 0.8576767421083499 0.8603256223700817 1.4311383924515508
731 0.708199995566098 1.5878115516807303 -1.5457780329570423
447 1.258898682273165 1.0493198302062714 0.6493764713947164
292 2.673709469827492 0.7223869255731767 -0.5736659415505758
398 1.572968707566459 -0.42833239155994873 -1.4641153516176464
305 0.9445762550833072 2.583941835230117 -0.11866131259301808
56 0.945622116094038 -1.297051211519248 0.4746546932445512
386 -0.3208749254198874 1.9375371330302482 -1.289194961732998
368 0.4553648134698962 1.5102256764446071 1.2653915706310472
501 -0.36984221216965973 -2.8173926634173725 -0.7169508404280224
437 -1.3166125162993554 1.4171399198858983 1.1522417206323547
77 -0.05422510724392687 0.255288254676655 -1.6104599129306771
583 -1.9945314784073196 -0.4079068703558778 0.875483389544941
616 0.9609109609078265 0.7272862116199229 0.7797125598584612
729 -0.050452008235366254 -0.8243849945076286 0.7986572198687433
366 1.2259355656451687 -0.00801665939608794 -1.260143882027157
195 1.9134983682837075 -0.4745051341747566 1.0963493644735312
426 -0.20581192742751364 2.215992772425303 -0.23331734157098363
482 -0.04299144342731214 -0.5402824193744723 -0.23140291097575605
845 0.45624200191531494 -0.11125577833011638 1.1560852905531889
751 1.4276553717447151 -0.3007283105715107 -2.7143032308221566
58 0.1686273481668155 0.36433603377380247 1.029135440434051
179 -0.7058241745288075 0.3094890924399902 -0.3089159649890905
246 0.6569760425217195 -0.6611792466162276 -1.4717698173731364
165 -0.5324121467598258 0.47728453864275644 1.9602009343262705
112 1.115741697594604 0.5240077579720374 2.172690090407607
717 0.9253653700572746 1.3717753818468046 1.334313699772099
758 -0.3662741288991401 2.3544394973061675 -0.04772453757565828
187 1.265975258219045 3.5751609388362207 -0.043918582276294894
344 -0.06443646434882415 0.9001678711137914 0.37673769736151036
316 -0.5716558019934379 -0.703751040344143 0.6315226307111399
841 2.5858154063015215 -0.7310869657579903 -1.055322514535629
753 -1.548569725358357 -0.8850237168871035 0.3195269696477598
161 -0.6277138756619248 0.38970519657556973 -1.648436255625519
783 -0.16031885767698054 -1.4027130427620458 -0.7725606875315348
718 -0.28737585489687567 1.52648709927809 -0.6302264729048906
864 0.6760568796748362 -1.469310050667594 1.1130013124668352
805 -0.6389187982430308 0.5891912599473939 -0.44358622611870624
224 -0.4498101919431759 -0.5851336353752652 0.19399552414969637
345 3.8646517179281785 1.5077660432136453 0.6547673386830671
498 0.9994348395543614 0.5059245884375253 -0.39301845844104294
430 -0.22115960123578407 0.49640385309352875 1.8754446142182672
700 -2.0397668258790245 -0.6546941511786826 0.14998957231799045
492 0.49524474126770895 2.0721053844908295 -0.042447659770673225
103 0.109166577888194 1.607701842878602 0.06959153682937044
42 1.6609246243578768 -0.2770051767844074 -1.0320283487466384
391 -0.2849563858983831 0.4815817416132147 0.18331530057518364
671 2.548740465166648 -1.094841572319957 -0.19330628746202339
579 -1.7967334952792422 0.04929456276604252 0.05099099807455187
124 -0.9079494192053643 0.39309150948121574 -0.8134214168055444
176 -0.7110003981913984 0.4601495380978928 -0.699418541472342
750 -0.6151165556527791 -2.492890187009428 0.5731417175857458
607 0.7212615162531396 0.3907005176537872 -1.8727113598272376
22 -0.35589339454744084 1.4010865796289367 0.9456608278063424
458 1.493132206566311 -1.7345945987592095 -0.33699712109416147
135 2.66832581607986 0.7178838610158114 0.9772159357200559
247 0.5763244014696998 -1.5445523393191738 0.20484686929042228
544 -0.3881682411011881 0.17494848597695595 -1.0161175601040204
817 -0.0572452233048829 1.3001806983385367 -1.0096176123264078
778 0.17167837579784992 0.3170050807296085 -0.45410500674181997
570 -1.9932076673349133 0.5560458738248582 -1.9438603914356791
381 0.6901245816181342 -1.055761436431632 -0.12164539825832296
285 -1.5393737931667455 -0.38717431272244573 1.8972210046420888
689 2.088953418418917 -1.2536672003986027 -0.18607584109625352
116 -0.10623317885091883 -1.212696042957145 1.528896004913276
702 -2.91866489691644 -0.795720415982316 1.8897073318472786
487 -1.1599472516757587 1.7760319416162178 1.0661680093787016
118 0.1257025280853034 1.6097946552275535 -1.3789204566391888
641 1.6415961005763122 0.2237422595563132 -0.6125194878520984
764 -1.864304049302268 -2.210565188396295 -0.8269130832433893
473 -0.05006177165021446 -0.4447838770615754 -2.222560996132604
646 0.16435802365866906 2.2418487498626583 0.4882008564906927
462 2.804388568837234 0.17816990561700183 -0.38602818776494163
225 1.0881460721001477 1.2645190973584137 2.2505210783500518
32 1.0323161700812946 -0.28883317743076353 3.8686196502903907
831 -1.8059711930600066 -1.5600811350323314 -1.4850226733337142
250 -0.3978262705095377 1.7619687625215945 1.0653168592895201
14 -0.8702595835360851 0.5860616631819257 -0.8430936597227134
418 0.950848590850535 -1.1834462738235656 1.4785241082145075
102 -0.4488860015002692 1.5956406202171354 -1.1549878049350797
642 -0.05965574058237691 0.6054141725186006 -5.978647441700546
282 -0.5046442755556165 -1.6066960745515182 0.056633038766107216
452 -0.5505146335960802 0.8820797710548034 0.09628428452934104
550 0.3670240817342029 0.8095006178824113 3.0769240352239384
97 0.13318827971471958 -1.3409417117988522 -0.8944166161809187
760 0.7227340864872416 0.7905119459170279 -0.6626017219977777
364 -3.3098323429567063 0.32864521827790405 0.7860633557830294
716 -1.889037378277809 1.6157864627483265 -0.1802416238519135
474 -0.24857223642238294 1.1970837966459273 0.9606395183137597
789 0.46822635967438353 0.6312885597834567 1.5343109817507972
46 -1.5467250587016679 -1.825597992283567 -0.38306577903508776
12 -0.07590759925989225 -0.5585542075211278 0.6748248695617733
238 -0.7535001285788517 -1.7485425701014068 -0.5397423234186959
632 0.054559781067318916 -1.7990480189625924 0.812713762669797
763 -2.7581088256230655 1.2062053233755627 1.0785637023347454
638 -1.744047783170284 -0.12063590338793946 -1.1254832996714697
189 -0.16548039756704827 1.817901122551035 -0.5798275560989816
163 1.6612565787447067 0.46676255846342524 -1.9581469682500279
622 -0.4217733066079367 0.3003015363718184 2.8432561638252962
748 0.1736696929704354 -0.4159445151108796 0.6877830075286663
527 0.9565189089331614 -2.531177554236402 0.7044156926297005
765 -1.4748596796023257 0.4826886813376468 -1.4500729043031304
128 -0.09133946142817692 -1.2252058142639948 0.521924301302332
249 -0.9948741904283366 -0.652551721813616 -0.24375750583675443
605 -0.20510793700234625 0.9305645398752346 -0.014012857131229083
396 0.8393825344154532 0.7939826974100213 1.1728384735703317
516 1.7104680090221975 -1.4812750302522004 1.0408260369800997
181 -1.04710310244741 -1.7055187760389605 -0.22453889087720827
198 -1.342472777210796 0.7318056493422399 0.059602941071454855
251 1.0690334887091075 -0.9836893600394236 -0.19055292420731446
657 0.4065391567894535 -1.2476294678997701 0.2813449588245279
755 0.1671235324832499 0.33056702514898406 -2.453488563307659
517 -1.9052753588908335 -0.12447967313233137 1.0169344910170524
76 -2.079437227206545 0.6089159715738157 0.15562857776116404
277 0.6427831983759784 3.174978340763165 -0.7027742487661309
166 -1.1841129761019413 -2.005307166679249 0.8028548283923954
444 0.2583979580871514 1.6010426787060963 -0.743512501785477
136 0.16944754520022778 -0.7086505527882513 0.19851677014037447
621 -0.16856112919113417 0.32315858507968176 -2.26459088358376
618 -0.4421638353761797 -0.627618761584678 -0.7306539541223661
63 -1.2640461099900906 0.028444462137988874 -0.61377266485737
699 1.0637180007767146 0.3482149218839278 -1.5237106415664943
333 1.7014880981458225 2.9826351774738082 0.7215067477427801
737 -0.9606568565672199 -1.1585076226548614 -1.7525559163793294
393 1.4644675190566891 0.9853887542741968 2.157476829825311
795 -0.9273004186435493 -0.4493494389073068 -2.339530968689593
512 1.8319381145858065 -1.3164323303131085 -0.47173070647283183
674 -1.0437754864740703 -0.7547898750815335 0.19304171765927944
851 -0.6467603532821179 -0.40046335975651726 0.37180285436568195
321 -1.7813171214236119 0.36876702014161966 -0.8186723314253895
303 -1.8110094584808965 -0.17453553456908152 0.1270039109259299
520 2.063839527112699 1.5562602690234009 -0.2605475897089381
481 -1.2352038851136056 -0.10706759202985212 -0.39013579960255984
361 -0.024186769483676047 -0.8426981663249759 -0.44559520626321125
442 -0.48385079772187456 -1.5269651672458475 0.6689710055888413
52 -0.9296415068411739 -0.4618308552804646 1.01788108620553
469 1.7342213027045785 0.16462651883333798 -0.4861263945365132
281 -0.8310066210388836 0.6557217985674608 1.5910753973518144
776 0.6924406234873317 -2.278552920379442 0.43544003526507435
504 0.9288758970366243 -0.1802436158348441 -1.0006966483622663
210 -0.8523611681489645 -0.27141044118651014 -0.3288661589408186
683 1.288874200313173 2.302711689725531 -1.0563601633634188
365 0.4397437091029666 -0.2416090106338608 0.8698795697110169
572 0.2682064994112401 3.103496917283387 -2.835536916610546
538 -0.044422177772104963 -0.5444854460254556 -0.3582111227032658
790 0.3331002166180774 0.4503803475765817 -0.14560875667377385
691 -0.7596998108490057 -0.2646677279907642 -0.43119917442364913
774 0.26573596219068 -0.012753127131710782 0.03809585151019221
237 1.081444486352132 -1.6275366096710144 -2.064608462093752
4 -0.6310375982047688 -0.5134497806877992 -0.844817562042119
409 0.521489716022229 0.2620255399252474 -0.3387059799619838
422 0.9951890712823213 1.045311646874747 0.45640161102851096
85 -1.6664918576832555 -0.6375161395308897 0.27856200725311214
655 1.2442300626569176 0.6201165094711139 -1.2929367717090738
196 2.6809560883259325 -1.2788246103841416 -0.5906215246458842
515 -0.36879009234283355 -1.8657492130409852 -0.5948099500323272
217 2.6109323442171686 3.1656847115734976 -0.6092923522781414
588 2.8342153560639525 -0.521075612174689 0.10655939431440062
556 0.1184081537193907 -0.04458953515766593 2.2828530200616552
855 -1.8030402522417142 0.0742701038634518 1.4201279256012298
738 1.6271829769266817 0.28871978058419007 1.0733953369278681
69 0.8106373053010548 -0.01455937347203243 0.9383221878594245
684 0.3222013257964745 1.718862349627748 -0.781240519918048
207 -2.067276964043924 1.145704515057562 -2.5449470037278465
518 1.1854765494302946 0.5261506575946708 -0.24562274013337862
428 3.479006222971404 0.9693823656296576 -1.626871234249633
423 -1.2555435083272295 -2.110054648319232 -1.5934930592315588
113 1.205510000129399 1.9195103791436798 2.291378828055442
628 0.3553081013275665 -0.9853229058548205 0.3669086782122096
275 1.2995288562819063 -0.8359228068527615 -1.9199800606334096
99 1.4003467206816067 -0.6214754250364246 0.6608251999827123
145 -0.6595586139960177 -0.7402937906164334 -1.3621707138302377
289 0.9099328532625266 -0.9851514999126766 0.6558505907813845
602 -1.3630504250198485 -1.4946461583107824 1.9320951047494994
107 -0.6342506472817352 -2.0989296084290703 0.23620606586373707
743 0.16837535053752045 -0.5522539452943838 0.27028089838701175
453 1.0258009896691433 -0.00505550807479983 0.6626760501173077
380 0.2640283569194798 0.9547206104687147 -1.9922475928092833
50 -0.05819821829453095 0.7249681716986283 -0.20508726559554416
262 2.678215840170678 -1.3040152608425846 -0.2876091141752639
326 -0.4873979862770627 -1.0987688119927448 -2.1666400177214498
563 1.3537923021574247 1.1117402092693465 -1.6459756361588211
283 2.1407790535042452 -1.8567973507040374 0.00539181409818314
324 -1.200139719647809 -0.09420755392500689 1.2462599894674173
513 -0.08034099366753877 0.23103030530436344 1.8350605451721886
858 -0.05094076906938525 1.0360268852308916 -1.1126977637132864
48 -0.8697492869474593 -0.469179422058507 2.9563178676764923
551 0.7585001067386647 1.0386468565153013 -2.0191450258150634
335 0.13064512891626118 1.434243133703689 -0.23825377842888373
286 -0.10380271859898489 1.409386860491259 0.2338193233112975
781 -0.07133389288644522 -1.0119244478209857 -0.4318554783085311
678 1.9602639903152632 0.009108367813255764 -0.27906223285532233
34 1.6503334612578913 -0.12220855908364518 -0.588738978552546
319 0.5572671177143509 2.0731493844024174 1.73436500600436
540 1.3984183034642654 1.2405153474024626 -0.5340244668630214
153 -1.1922416966740037 1.8921626754254526 0.8253819183823126
425 -0.029996674766585133 0.8813648124676572 -2.5499126153912455
130 -0.7475755932914436 -0.6522270509903457 0.31766656213726185
183 -1.2067175110332455 0.4896352501217583 -0.4980553148629112
86 0.5763416373802804 1.1031353233017251 1.0585991337719522
5 1.5181754375125285 0.9177776426828959 1.314476495960264
484 0.16538647281456312 1.7817544356440913 -0.41452533802941277
742 -0.6623349779451015 -0.9148829748255567 1.82565208273005
28 0.8427816101402879 0.2391838787395365 -0.9485867047489064
356 -0.5283410010821384 -0.8407645091252188 0.30359692708719044
848 0.8393008520623577 1.2371094967854916 -0.19002898795357248
431 0.23897652074864498 0.37701200428539755 -1.0825650378276817
18 0.3348558768800969 -0.7478296346299825 -2.1859695456985517
587 0.901557061474264 -1.6942259439708542 1.1435989072858181
54 1.1592260848199725 -1.0104144912894495 -0.2951692303036105
535 -1.5100487008609125 0.2765449966635676 -0.8179325191284704
341 -1.4908825294881125 -1.021935957946543 0.40339584851782423
219 0.31268977372296797 1.2888245616363132 -1.0408481278276673
59 -0.47300665685318133 -0.3059488999465331 0.5125249455641137
82 -2.381545542766981 0.2487740179008177 0.7659511412040407
170 -1.2203223833985937 -1.7818065432030799 -1.2414650067378485
714 1.4911597312445446 -0.8563403954411251 1.3213300173617022
323 1.6313152912067035 -0.24643490556246334 1.5568713936738756
226 0.285729299136969 -0.29599397580108106 -1.5623628874917759
722 -3.4010234028216266 -1.2425733301114135 -0.3627139514280149
519 -2.1947016181646735 2.182190800708228 -0.878245479377555
329 -3.5541681603901254 -0.38604887713681507 0.2861042087694872
536 -1.844592635467416 -1.3550423169428778 1.3838644698124134
485 0.17568480700790906 -0.8284750621692254 1.2088902326182924
206 -0.19426160121471547 1.5602463810498075 -0.785158063863051
571 -0.25462898639801007 0.6594574368478768 -0.41345135050913207
254 1.4553850997177376 0.0906408514064144 0.13543729068230667
617 -0.44680529905605254 1.9578559052319044 -1.4055673699655005
228 0.5071767929548361 -3.3170234560584535 -0.6558016388806277
581 0.9950398389089291 -1.3631607433249098 0.03607961374922177
522 2.366222105902515 -1.2703488080286212 -0.7045309301333352
294 -0.13122611442199517 -1.9423376366361615 0.16746058223209437
677 -1.112786532714734 -0.4659497310752055 -1.9081786723661698
332 -2.6132824203430878 0.9475762232374707 0.7181033251352605
295 -0.48586195990312997 1.419497265810088 -2.5695361737829527
252 -0.8302115703210801 -0.5259243831336554 1.2639936130678273
357 -0.27219332977789207 0.8251787136290628 -0.5076631081173105
96 -0.2018967300852505 -0.1520074651548998 0.042748578847408264
586 -2.11851734675493 -1.7644915661478573 0.04034929147071721
159 0.8844500873110084 -0.24180865791052875 1.0745357336273236
692 -0.1790650259996016 1.1380254573518231 -0.07073423170984168
493 -2.5265078400008885 -0.6063153720991548 2.7523228308416123
575 0.6303382607370582 -0.9083639533178507 -0.2004999073590589
119 -1.9289030018479059 0.4533851462385922 -0.22467279429699027
441 0.5022290840975574 -0.06846374562698697 1.1539519331483925
675 -2.0224101978986906 0.6423519502720385 -0.6739137357458562
382 1.0447204714244298 0.7249599290869083 1.949694275665785
72 -1.1923685766502805 -1.1062499362160754 1.2742595427403984
707 1.2774288494707955 0.8926299315277558 1.482261861998873
464 1.7342603672065733 0.4143640389174116 0.48633729122502833
199 -0.18926368903206017 -0.6449957386440665 -1.8997692219580484
852 1.8166282752281802 -0.9433663314733066 -2.56299602702734
834 1.6206762769559184 -0.9880515173235466 -0.5279459521118639
451 -0.4549614189942781 0.07966667651641564 -0.21329145005829397
301 -1.5942627661168738 -0.16952710559813297 -0.8791439618448019
284 0.3713241711140868 0.6382138942714188 1.1482373411202365
355 -0.2718717202816159 -0.3153945309120273 0.9415515710905255
596 1.9470530339380958 -1.0755531841756645 0.1629997805700069
745 1.3557597789183309 0.7658986868811108 0.9839514012746914
193 -2.1927063317081346 0.046169913897720405 1.9460537000063554
821 0.9370289674037281 3.5506515234105986 -0.5440357082303829
318 -0.3995113220880678 0.4215644152907079 1.1364999992949296
606 0.2506081873912093 0.8452243111614341 -0.5390352932715767
682 0.7347144968076043 1.292965643716136 1.6624995343757312
701 1.040830878150359 -1.9785407542750866 -0.3352386398182377
695 0.9136070240163646 1.1793184428215957 -1.545505509263686
233 -1.7956191605211458 1.7038990896192272 -1.3083489272265456
167 1.3180350153508769 -0.8765114419947939 -0.8879964161910656
672 -0.5523578388256968 -0.43242651623595385 -0.36547273660885854
37 -0.4174154467177041 0.7947916857821523 1.166721480470551
244 0.18443050381992226 -1.611339655147837 1.259311678729686
194 -3.3567676839423997 -0.46185247140197544 -0.6397913879804252
531 -3.10186852239061 -0.867545325754211 1.502298330369197
680 -1.694022197503947 0.9336958087350731 2.6082040364093166
278 0.5633228642001711 -0.05895222680013745 -1.2040779534961068
625 0.217602492668017 0.06821519925012912 -0.8435894992959868
480 0.48211740336304765 0.40963011768415114 0.857290887875161
780 2.1666328087605464 -2.0045783855479105 -2.5096916068175825
169 -0.8407674945850059 2.8412663270941847 0.35421644816240644
222 -0.8753980146088124 -0.5643060642362562 0.6226960124859648
856 -1.0115315259650366 0.5816236434827992 -0.7977460580625062
725 0.6502849423316315 -0.31537319980508605 -1.0958507237685804
650 -0.07965252977553752 -1.6036420664726512 0.5001170584532688
708 -1.2521645675015154 1.6213644065215211 -0.7154613708350746
90 -0.927812274615468 0.5265281218565555 1.7949706650468142
740 2.5069475910238315 -1.867389846197766 -3.213771140249681
562 -0.6058922911389619 0.013801858270033992 -0.3085949887355828
44 -2.45521178944491 0.2911395390433872 -2.9114127743670926
857 1.7748050394106751 -2.1623985476616996 -0.521422582312529
392 0.779523079016221 -0.23279530139309887 0.5792165074836405
308 -2.6572314628620886 -0.5897420911942307 -1.2191723966787595
769 0.11326619636246514 -3.1868646926857136 -0.7820437143119409
434 0.4301400287373218 1.374116835658568 -1.5789362815441672
756 -0.4645380153122344 1.3028768851663621 2.0737692982814213
220 -1.453314760199163 0.1906721648692061 1.6371270789382422
311 -0.5857541473335285 0.9681106878290616 0.8165917534718583
667 1.3527368600280973 -1.8552170203706022 0.4293194825449801
53 -0.9972331425874964 -1.2885074506897993 2.1933851882373387
719 0.26593629506895927 -2.833845139223681 -0.8222427231816913
266 2.0177327428613436 -0.16841152934955017 0.24182627108873703
661 1.723267031805765 0.17758821252092816 2.0160347316268976
291 -0.8800394544427769 -0.5589230652647735 0.33168996405245904
212 -0.8027635191986275 -1.6553728655561593 -0.6158915301720452
296 -2.1901319204084158 -0.37632154632706244 -0.42499645479359843
506 -2.683413080459784 0.8674538294264356 1.2360252627643722
600 0.41183553675351786 1.762106192828252 0.5281416378322786
229 -1.4628293974993232 1.4444536861935746 -0.4183854447129492
754 0.1035186573118199 -0.7147073007054956 0.5299800198937844
415 -0.01358943474695364 0.8712598494920223 2.447160181805166
330 0.4748739147286982 -1.9298738269366327 0.44817360610079005
837 1.559062153698831 2.122115976615244 0.17695730472852675
325 1.4959204377710056 0.6589830175267856 -0.6467456608747103
697 0.20617881461212642 1.085985297658413 1.5002154595434027
410 0.6536636446547659 -0.9549076231585287 0.37557257676598593
312 -0.6810180331401937 -0.06514905780551543 0.4838479393735859
578 -1.8929195038513946 -0.9625590650169645 1.072962442998157
290 1.246615576437929 -2.366645282570195 -1.4113815949235011
150 0.3710398426404786 -0.8541952040402273 1.027355280752186
791 2.04277634490223 -1.2227441225682243 -1.4049562362234889
327 0.022670632988634955 -0.8535957383430124 0.5217908462326912
798 -0.2200979182223144 -0.1942688329150338 -0.4986238599684359
300 2.674934890826493 -1.020769994935773 -2.103473067714533
548 -0.06208965128882885 0.1703948417251721 0.5936777704736917
160 -2.1579371326021786 1.8514775153256606 0.5171743858180329
539 1.1911947384991195 -2.9919158053253287 -0.14637620883523436
594 1.7685003638152637 -2.977091497520409 0.019103068689712146
653 -0.23535704103492108 -0.6135108469450452 -3.214826945414182
298 0.5716223067588834 0.4163061295599029 -2.0203394300873354
399 1.5677545561822246 0.469280282644928 0.25099720576920487
21 -0.3885652756103455 -0.3805365249081992 1.8506975362616656
51 -0.02246168584077062 -0.07431938506377801 -0.17245141968070823
799 0.20888408701459776 0.3358291656993297 0.6369332175872214
553 -2.9823361090124108 -0.802699844447879 -1.8430425961534127
377 0.12128954125464873 1.042467971520138 0.1336552761597696
775 -0.3788464259971612 -0.5422442305461946 -0.30168787370376
860 -0.21552693280486435 -1.7805912935408366 1.2369110706681752
643 0.9835694650526071 0.4695238082316489 -1.2791920399916124
499 2.9208003348353224 0.30583742688395693 -0.6205517096218252
640 1.8708254621918914 -0.6343068061951218 0.12086825629654327
